LAMMPS (28 Mar 2023 - Update 1)
  using 1 OpenMP thread(s) per MPI task
# CdTe cluster
units metal
dimension 3
boundary p p p
atom_style  charge
read_data in.data
Reading data file ...
  orthogonal box = (0 0 0) to (8.4283 14.5982 49.476269)
  1 by 1 by 2 MPI processor grid
  reading atoms ...
  383 atoms
  read_data CPU = 0.004 seconds


mass 1 26.9815386
mass 2 15.9994

pair_style comb3 polar_off
pair_coeff * * /home/yuxin.chang/fantastx/examples/Al_Al2O3_lmp_ex_yuxin_edit/ffield.comb3.NiAlO Al O

neighbor 4.0 bin
neigh_modify one 2000
neigh_modify delay 0 every 10 check yes

region top_grain block INF INF INF INF 23.8 45
region bottom_grain block INF INF INF INF 1 19.1
group top region top_grain
144 atoms in group top
group bot region bottom_grain
222 atoms in group bot
group both_grains union top bot
366 atoms in group both_grains
fix ff both_grains setforce 0.0 0.0 0.0

minimize 0.0 1.0e-6 1 1
Switching to 'neigh_modify every 1 delay 0 check yes' setting during minimization
Neighbor list info ...
  update: every = 1 steps, delay = 0 steps, check = yes
  max neighbors/atom: 2000, page size: 100000
  master list distance cutoff = 15
  ghost atom cutoff = 15
  binsize = 7.5, bins = 2 2 7
  1 neighbor lists, perpetual/occasional/extra = 1 0 0
  (1) pair comb3, perpetual
      attributes: full, newton on, ghost
      pair build: full/bin/ghost
      stencil: full/ghost/bin/3d
      bin: standard
Per MPI rank memory allocation (min/avg/max) = 21.74 | 21.93 | 22.13 Mbytes
   Step          Temp          E_pair         E_mol          TotEng         Press     
         0   0             -1519.8584      0             -1519.8584      52965.234    
         1   0             -1527.915       0             -1527.915       49389.416    
Loop time of 0.0957587 on 2 procs for 1 steps with 383 atoms

96.9% CPU use with 2 MPI tasks x 1 OpenMP threads

Minimization stats:
  Stopping criterion = max force evaluations
  Energy initial, next-to-last, final = 
     -1519.85842043413  -1519.85842043413   -1527.9149969427
  Force two-norm initial, final = 75.813968 38.841505
  Force max component initial, final = 50.653557 24.430849
  Final line search alpha, max atom move = 0.001974195 0.04823126
  Iterations, force evaluations = 1 1

MPI task timing breakdown:
Section |  min time  |  avg time  |  max time  |%varavg| %total
---------------------------------------------------------------
Pair    | 0.06775    | 0.081512   | 0.095274   |   4.8 | 85.12
Neigh   | 0          | 0          | 0          |   0.0 |  0.00
Comm    | 0.00026068 | 0.014009   | 0.027757   |  11.6 | 14.63
Output  | 0          | 0          | 0          |   0.0 |  0.00
Modify  | 6.933e-06  | 7.7885e-06 | 8.644e-06  |   0.0 |  0.01
Other   |            | 0.0002304  |            |       |  0.24

Nlocal:          191.5 ave         257 max         126 min
Histogram: 1 0 0 0 0 0 0 0 0 1
Nghost:         5804.5 ave        6083 max        5526 min
Histogram: 1 0 0 0 0 0 0 0 0 1
Neighs:              0 ave           0 max           0 min
Histogram: 2 0 0 0 0 0 0 0 0 0
FullNghs:       195484 ave      293896 max       97072 min
Histogram: 1 0 0 0 0 0 0 0 0 1

Total # of neighbors = 390968
Ave neighs/atom = 1020.8042
Neighbor list builds = 0
Dangerous builds = 0

#thermo_style multi
#thermo 100

#fix 1 all box/relax aniso 0.0

#region bulk union 2 bulk1 bulk2
compute peatom all pe/atom
dump myDump all custom 1000 rlx.str id type x y z c_peatom

minimize 1.0e-6 1.0e-6 5000 10000
Switching to 'neigh_modify every 1 delay 0 check yes' setting during minimization
Per MPI rank memory allocation (min/avg/max) = 21.86 | 22.06 | 22.25 Mbytes
   Step          Temp          E_pair         E_mol          TotEng         Press     
         1   0             -1527.915       0             -1527.915       49389.416    
        33   0             -1548.6708      0             -1548.6708      42640.37     
Loop time of 2.35884 on 2 procs for 32 steps with 383 atoms

97.9% CPU use with 2 MPI tasks x 1 OpenMP threads

Minimization stats:
  Stopping criterion = energy tolerance
  Energy initial, next-to-last, final = 
      -1527.9149969427  -1548.66976350127  -1548.67081332248
  Force two-norm initial, final = 38.841505 0.93772413
  Force max component initial, final = 24.430849 0.68630176
  Final line search alpha, max atom move = 0.23868014 0.1638066
  Iterations, force evaluations = 32 48

MPI task timing breakdown:
Section |  min time  |  avg time  |  max time  |%varavg| %total
---------------------------------------------------------------
Pair    | 1.5816     | 1.9636     | 2.3455     |  27.3 | 83.24
Neigh   | 0          | 0          | 0          |   0.0 |  0.00
Comm    | 0.0081671  | 0.38984    | 0.77152    |  61.1 | 16.53
Output  | 0          | 0          | 0          |   0.0 |  0.00
Modify  | 0.00017449 | 0.0001889  | 0.00020331 |   0.0 |  0.01
Other   |            | 0.00524    |            |       |  0.22

Nlocal:          191.5 ave         257 max         126 min
Histogram: 1 0 0 0 0 0 0 0 0 1
Nghost:         5804.5 ave        6083 max        5526 min
Histogram: 1 0 0 0 0 0 0 0 0 1
Neighs:              0 ave           0 max           0 min
Histogram: 2 0 0 0 0 0 0 0 0 0
FullNghs:       195490 ave      293899 max       97081 min
Histogram: 1 0 0 0 0 0 0 0 0 1

Total # of neighbors = 390980
Ave neighs/atom = 1020.8355
Neighbor list builds = 0
Dangerous builds = 0
Total wall time: 0:00:02
