Pt 
1.0
       43.7862129211         0.0000000000         0.0000000000
        0.0000000000        43.7862129211         0.0000000000
        0.0000000000         0.0000000000        43.7862129211
   Pt
  491
Direct
     0.273651987         0.454730392         0.318921596
     0.273651987         0.500000000         0.273651987
     0.228382394         0.500000000         0.318921596
     0.228382394         0.545269608         0.364191204
     0.273651987         0.500000000         0.364191204
     0.273651987         0.545269608         0.318921596
     0.273651987         0.545269608         0.409460783
     0.273651987         0.590539217         0.364191204
     0.228382394         0.590539217         0.409460783
     0.228382394         0.635808825         0.454730392
     0.273651987         0.590539217         0.454730392
     0.273651987         0.635808825         0.409460783
     0.273651987         0.635808825         0.500000000
     0.273651987         0.681078434         0.454730392
     0.228382394         0.681078434         0.500000000
     0.273651987         0.681078434         0.545269608
     0.273651987         0.726347983         0.500000000
     0.364191204         0.364191204         0.318921596
     0.318921596         0.454730392         0.273651987
     0.364191204         0.409460783         0.273651987
     0.364191204         0.454730392         0.228382394
     0.318921596         0.409460783         0.318921596
     0.318921596         0.454730392         0.364191204
     0.364191204         0.409460783         0.364191204
     0.364191204         0.454730392         0.318921596
     0.364191204         0.454730392         0.409460783
     0.318921596         0.500000000         0.228382394
     0.318921596         0.545269608         0.273651987
     0.364191204         0.500000000         0.273651987
     0.364191204         0.545269608         0.228382394
     0.318921596         0.500000000         0.318921596
     0.318921596         0.545269608         0.364191204
     0.364191204         0.500000000         0.364191204
     0.364191204         0.545269608         0.318921596
     0.318921596         0.500000000         0.409460783
     0.318921596         0.545269608         0.454730392
     0.364191204         0.500000000         0.454730392
     0.364191204         0.545269608         0.409460783
     0.364191204         0.545269608         0.500000000
     0.364191204         0.590539217         0.273651987
     0.318921596         0.590539217         0.318921596
     0.318921596         0.635808825         0.364191204
     0.364191204         0.590539217         0.364191204
     0.364191204         0.635808825         0.318921596
     0.318921596         0.590539217         0.409460783
     0.318921596         0.635808825         0.454730392
     0.364191204         0.590539217         0.454730392
     0.364191204         0.635808825         0.409460783
     0.318921596         0.590539217         0.500000000
     0.318921596         0.635808825         0.545269608
     0.364191204         0.590539217         0.545269608
     0.364191204         0.635808825         0.500000000
     0.364191204         0.635808825         0.590539217
     0.364191204         0.681078434         0.364191204
     0.318921596         0.681078434         0.409460783
     0.318921596         0.726347983         0.454730392
     0.364191204         0.681078434         0.454730392
     0.364191204         0.726347983         0.409460783
     0.318921596         0.681078434         0.500000000
     0.318921596         0.726347983         0.545269608
     0.364191204         0.681078434         0.545269608
     0.364191204         0.726347983         0.500000000
     0.318921596         0.681078434         0.590539217
     0.364191204         0.681078434         0.635808825
     0.364191204         0.726347983         0.590539217
     0.364191204         0.771617591         0.454730392
     0.318921596         0.771617591         0.500000000
     0.364191204         0.771617591         0.545269608
     0.454730392         0.273651987         0.318921596
     0.409460783         0.364191204         0.273651987
     0.454730392         0.318921596         0.273651987
     0.454730392         0.364191204         0.228382394
     0.409460783         0.318921596         0.318921596
     0.409460783         0.364191204         0.364191204
     0.454730392         0.318921596         0.364191204
     0.454730392         0.364191204         0.318921596
     0.454730392         0.364191204         0.409460783
     0.409460783         0.409460783         0.228382394
     0.409460783         0.454730392         0.273651987
     0.454730392         0.409460783         0.273651987
     0.454730392         0.454730392         0.228382394
     0.409460783         0.409460783         0.318921596
     0.409460783         0.454730392         0.364191204
     0.454730392         0.409460783         0.364191204
     0.454730392         0.454730392         0.318921596
     0.409460783         0.409460783         0.409460783
     0.409460783         0.454730392         0.454730392
     0.454730392         0.409460783         0.454730392
     0.454730392         0.454730392         0.409460783
     0.454730392         0.454730392         0.500000000
     0.409460783         0.500000000         0.228382394
     0.409460783         0.545269608         0.273651987
     0.454730392         0.500000000         0.273651987
     0.454730392         0.545269608         0.228382394
     0.409460783         0.500000000         0.318921596
     0.409460783         0.545269608         0.364191204
     0.454730392         0.500000000         0.364191204
     0.454730392         0.545269608         0.318921596
     0.409460783         0.500000000         0.409460783
     0.409460783         0.545269608         0.454730392
     0.454730392         0.500000000         0.454730392
     0.454730392         0.545269608         0.409460783
     0.409460783         0.500000000         0.500000000
     0.409460783         0.545269608         0.545269608
     0.454730392         0.500000000         0.545269608
     0.454730392         0.545269608         0.500000000
     0.454730392         0.545269608         0.590539217
     0.409460783         0.590539217         0.228382394
     0.409460783         0.635808825         0.273651987
     0.454730392         0.590539217         0.273651987
     0.454730392         0.635808825         0.228382394
     0.409460783         0.590539217         0.318921596
     0.409460783         0.635808825         0.364191204
     0.454730392         0.590539217         0.364191204
     0.454730392         0.635808825         0.318921596
     0.409460783         0.590539217         0.409460783
     0.409460783         0.635808825         0.454730392
     0.454730392         0.590539217         0.454730392
     0.454730392         0.635808825         0.409460783
     0.409460783         0.590539217         0.500000000
     0.409460783         0.635808825         0.545269608
     0.454730392         0.590539217         0.545269608
     0.454730392         0.635808825         0.500000000
     0.409460783         0.590539217         0.590539217
     0.409460783         0.635808825         0.635808825
     0.454730392         0.590539217         0.635808825
     0.454730392         0.635808825         0.590539217
     0.454730392         0.635808825         0.681078434
     0.454730392         0.681078434         0.273651987
     0.409460783         0.681078434         0.318921596
     0.409460783         0.726347983         0.364191204
     0.454730392         0.681078434         0.364191204
     0.454730392         0.726347983         0.318921596
     0.409460783         0.681078434         0.409460783
     0.409460783         0.726347983         0.454730392
     0.454730392         0.681078434         0.454730392
     0.454730392         0.726347983         0.409460783
     0.409460783         0.681078434         0.500000000
     0.409460783         0.726347983         0.545269608
     0.454730392         0.681078434         0.545269608
     0.454730392         0.726347983         0.500000000
     0.409460783         0.681078434         0.590539217
     0.409460783         0.726347983         0.635808825
     0.454730392         0.681078434         0.635808825
     0.454730392         0.726347983         0.590539217
     0.409460783         0.681078434         0.681078434
     0.454730392         0.681078434         0.726347983
     0.454730392         0.726347983         0.681078434
     0.454730392         0.771617591         0.364191204
     0.409460783         0.771617591         0.409460783
     0.454730392         0.771617591         0.454730392
     0.409460783         0.771617591         0.500000000
     0.454730392         0.771617591         0.545269608
     0.409460783         0.771617591         0.590539217
     0.454730392         0.771617591         0.635808825
     0.500000000         0.273651987         0.273651987
     0.500000000         0.228382394         0.318921596
     0.500000000         0.273651987         0.364191204
     0.545269608         0.228382394         0.364191204
     0.545269608         0.273651987         0.318921596
     0.545269608         0.273651987         0.409460783
     0.500000000         0.318921596         0.228382394
     0.500000000         0.364191204         0.273651987
     0.545269608         0.318921596         0.273651987
     0.545269608         0.364191204         0.228382394
     0.500000000         0.318921596         0.318921596
     0.500000000         0.364191204         0.364191204
     0.545269608         0.318921596         0.364191204
     0.545269608         0.364191204         0.318921596
     0.500000000         0.318921596         0.409460783
     0.500000000         0.364191204         0.454730392
     0.545269608         0.318921596         0.454730392
     0.545269608         0.364191204         0.409460783
     0.545269608         0.364191204         0.500000000
     0.500000000         0.409460783         0.228382394
     0.500000000         0.454730392         0.273651987
     0.545269608         0.409460783         0.273651987
     0.545269608         0.454730392         0.228382394
     0.500000000         0.409460783         0.318921596
     0.500000000         0.454730392         0.364191204
     0.545269608         0.409460783         0.364191204
     0.545269608         0.454730392         0.318921596
     0.500000000         0.409460783         0.409460783
     0.500000000         0.454730392         0.454730392
     0.545269608         0.409460783         0.454730392
     0.545269608         0.454730392         0.409460783
     0.500000000         0.409460783         0.500000000
     0.500000000         0.454730392         0.545269608
     0.545269608         0.409460783         0.545269608
     0.545269608         0.454730392         0.500000000
     0.545269608         0.454730392         0.590539217
     0.500000000         0.500000000         0.228382394
     0.500000000         0.545269608         0.273651987
     0.545269608         0.500000000         0.273651987
     0.545269608         0.545269608         0.228382394
     0.500000000         0.500000000         0.318921596
     0.500000000         0.545269608         0.364191204
     0.545269608         0.500000000         0.364191204
     0.545269608         0.545269608         0.318921596
     0.500000000         0.500000000         0.409460783
     0.500000000         0.545269608         0.454730392
     0.545269608         0.500000000         0.454730392
     0.545269608         0.545269608         0.409460783
     0.500000000         0.500000000         0.500000000
     0.500000000         0.545269608         0.545269608
     0.545269608         0.500000000         0.545269608
     0.545269608         0.545269608         0.500000000
     0.500000000         0.500000000         0.590539217
     0.500000000         0.545269608         0.635808825
     0.545269608         0.500000000         0.635808825
     0.545269608         0.545269608         0.590539217
     0.545269608         0.545269608         0.681078434
     0.500000000         0.590539217         0.228382394
     0.500000000         0.635808825         0.273651987
     0.545269608         0.590539217         0.273651987
     0.545269608         0.635808825         0.228382394
     0.500000000         0.590539217         0.318921596
     0.500000000         0.635808825         0.364191204
     0.545269608         0.590539217         0.364191204
     0.545269608         0.635808825         0.318921596
     0.500000000         0.590539217         0.409460783
     0.500000000         0.635808825         0.454730392
     0.545269608         0.590539217         0.454730392
     0.545269608         0.635808825         0.409460783
     0.500000000         0.590539217         0.500000000
     0.500000000         0.635808825         0.545269608
     0.545269608         0.590539217         0.545269608
     0.545269608         0.635808825         0.500000000
     0.500000000         0.590539217         0.590539217
     0.500000000         0.635808825         0.635808825
     0.545269608         0.590539217         0.635808825
     0.545269608         0.635808825         0.590539217
     0.500000000         0.590539217         0.681078434
     0.500000000         0.635808825         0.726347983
     0.545269608         0.590539217         0.726347983
     0.545269608         0.635808825         0.681078434
     0.545269608         0.635808825         0.771617591
     0.500000000         0.681078434         0.228382394
     0.500000000         0.726347983         0.273651987
     0.545269608         0.681078434         0.273651987
     0.500000000         0.681078434         0.318921596
     0.500000000         0.726347983         0.364191204
     0.545269608         0.681078434         0.364191204
     0.545269608         0.726347983         0.318921596
     0.500000000         0.681078434         0.409460783
     0.500000000         0.726347983         0.454730392
     0.545269608         0.681078434         0.454730392
     0.545269608         0.726347983         0.409460783
     0.500000000         0.681078434         0.500000000
     0.500000000         0.726347983         0.545269608
     0.545269608         0.681078434         0.545269608
     0.545269608         0.726347983         0.500000000
     0.500000000         0.681078434         0.590539217
     0.500000000         0.726347983         0.635808825
     0.545269608         0.681078434         0.635808825
     0.545269608         0.726347983         0.590539217
     0.500000000         0.681078434         0.681078434
     0.500000000         0.726347983         0.726347983
     0.545269608         0.681078434         0.726347983
     0.545269608         0.726347983         0.681078434
     0.500000000         0.681078434         0.771617591
     0.500000000         0.771617591         0.318921596
     0.545269608         0.771617591         0.364191204
     0.500000000         0.771617591         0.409460783
     0.545269608         0.771617591         0.454730392
     0.500000000         0.771617591         0.500000000
     0.545269608         0.771617591         0.545269608
     0.500000000         0.771617591         0.590539217
     0.545269608         0.771617591         0.635808825
     0.500000000         0.771617591         0.681078434
     0.590539217         0.273651987         0.364191204
     0.590539217         0.228382394         0.409460783
     0.590539217         0.273651987         0.454730392
     0.635808825         0.228382394         0.454730392
     0.635808825         0.273651987         0.409460783
     0.635808825         0.273651987         0.500000000
     0.590539217         0.364191204         0.273651987
     0.590539217         0.318921596         0.318921596
     0.590539217         0.364191204         0.364191204
     0.635808825         0.318921596         0.364191204
     0.635808825         0.364191204         0.318921596
     0.590539217         0.318921596         0.409460783
     0.590539217         0.364191204         0.454730392
     0.635808825         0.318921596         0.454730392
     0.635808825         0.364191204         0.409460783
     0.590539217         0.318921596         0.500000000
     0.590539217         0.364191204         0.545269608
     0.635808825         0.318921596         0.545269608
     0.635808825         0.364191204         0.500000000
     0.635808825         0.364191204         0.590539217
     0.590539217         0.409460783         0.228382394
     0.590539217         0.454730392         0.273651987
     0.635808825         0.409460783         0.273651987
     0.635808825         0.454730392         0.228382394
     0.590539217         0.409460783         0.318921596
     0.590539217         0.454730392         0.364191204
     0.635808825         0.409460783         0.364191204
     0.635808825         0.454730392         0.318921596
     0.590539217         0.409460783         0.409460783
     0.590539217         0.454730392         0.454730392
     0.635808825         0.409460783         0.454730392
     0.635808825         0.454730392         0.409460783
     0.590539217         0.409460783         0.500000000
     0.590539217         0.454730392         0.545269608
     0.635808825         0.409460783         0.545269608
     0.635808825         0.454730392         0.500000000
     0.590539217         0.409460783         0.590539217
     0.590539217         0.454730392         0.635808825
     0.635808825         0.409460783         0.635808825
     0.635808825         0.454730392         0.590539217
     0.635808825         0.454730392         0.681078434
     0.590539217         0.500000000         0.228382394
     0.590539217         0.545269608         0.273651987
     0.635808825         0.500000000         0.273651987
     0.635808825         0.545269608         0.228382394
     0.590539217         0.500000000         0.318921596
     0.590539217         0.545269608         0.364191204
     0.635808825         0.500000000         0.364191204
     0.635808825         0.545269608         0.318921596
     0.590539217         0.500000000         0.409460783
     0.590539217         0.545269608         0.454730392
     0.635808825         0.500000000         0.454730392
     0.635808825         0.545269608         0.409460783
     0.590539217         0.500000000         0.500000000
     0.590539217         0.545269608         0.545269608
     0.635808825         0.500000000         0.545269608
     0.635808825         0.545269608         0.500000000
     0.590539217         0.500000000         0.590539217
     0.590539217         0.545269608         0.635808825
     0.635808825         0.500000000         0.635808825
     0.635808825         0.545269608         0.590539217
     0.590539217         0.500000000         0.681078434
     0.590539217         0.545269608         0.726347983
     0.635808825         0.500000000         0.726347983
     0.635808825         0.545269608         0.681078434
     0.635808825         0.545269608         0.771617591
     0.590539217         0.590539217         0.228382394
     0.590539217         0.635808825         0.273651987
     0.635808825         0.590539217         0.273651987
     0.590539217         0.590539217         0.318921596
     0.590539217         0.635808825         0.364191204
     0.635808825         0.590539217         0.364191204
     0.635808825         0.635808825         0.318921596
     0.590539217         0.590539217         0.409460783
     0.590539217         0.635808825         0.454730392
     0.635808825         0.590539217         0.454730392
     0.635808825         0.635808825         0.409460783
     0.590539217         0.590539217         0.500000000
     0.590539217         0.635808825         0.545269608
     0.635808825         0.590539217         0.545269608
     0.635808825         0.635808825         0.500000000
     0.590539217         0.590539217         0.590539217
     0.590539217         0.635808825         0.635808825
     0.635808825         0.590539217         0.635808825
     0.635808825         0.635808825         0.590539217
     0.590539217         0.590539217         0.681078434
     0.590539217         0.635808825         0.726347983
     0.635808825         0.590539217         0.726347983
     0.635808825         0.635808825         0.681078434
     0.590539217         0.590539217         0.771617591
     0.590539217         0.681078434         0.318921596
     0.590539217         0.726347983         0.364191204
     0.635808825         0.681078434         0.364191204
     0.590539217         0.681078434         0.409460783
     0.590539217         0.726347983         0.454730392
     0.635808825         0.681078434         0.454730392
     0.635808825         0.726347983         0.409460783
     0.590539217         0.681078434         0.500000000
     0.590539217         0.726347983         0.545269608
     0.635808825         0.681078434         0.545269608
     0.635808825         0.726347983         0.500000000
     0.590539217         0.681078434         0.590539217
     0.590539217         0.726347983         0.635808825
     0.635808825         0.681078434         0.635808825
     0.635808825         0.726347983         0.590539217
     0.590539217         0.681078434         0.681078434
     0.590539217         0.771617591         0.409460783
     0.635808825         0.771617591         0.454730392
     0.590539217         0.771617591         0.500000000
     0.635808825         0.771617591         0.545269608
     0.590539217         0.771617591         0.590539217
     0.681078434         0.273651987         0.454730392
     0.681078434         0.228382394         0.500000000
     0.681078434         0.273651987         0.545269608
     0.726347983         0.273651987         0.500000000
     0.681078434         0.364191204         0.364191204
     0.681078434         0.318921596         0.409460783
     0.681078434         0.364191204         0.454730392
     0.726347983         0.318921596         0.454730392
     0.726347983         0.364191204         0.409460783
     0.681078434         0.318921596         0.500000000
     0.681078434         0.364191204         0.545269608
     0.726347983         0.318921596         0.545269608
     0.726347983         0.364191204         0.500000000
     0.681078434         0.318921596         0.590539217
     0.681078434         0.364191204         0.635808825
     0.726347983         0.364191204         0.590539217
     0.681078434         0.454730392         0.273651987
     0.681078434         0.409460783         0.318921596
     0.681078434         0.454730392         0.364191204
     0.726347983         0.409460783         0.364191204
     0.726347983         0.454730392         0.318921596
     0.681078434         0.409460783         0.409460783
     0.681078434         0.454730392         0.454730392
     0.726347983         0.409460783         0.454730392
     0.726347983         0.454730392         0.409460783
     0.681078434         0.409460783         0.500000000
     0.681078434         0.454730392         0.545269608
     0.726347983         0.409460783         0.545269608
     0.726347983         0.454730392         0.500000000
     0.681078434         0.409460783         0.590539217
     0.681078434         0.454730392         0.635808825
     0.726347983         0.409460783         0.635808825
     0.726347983         0.454730392         0.590539217
     0.681078434         0.409460783         0.681078434
     0.681078434         0.454730392         0.726347983
     0.726347983         0.454730392         0.681078434
     0.681078434         0.500000000         0.228382394
     0.681078434         0.545269608         0.273651987
     0.726347983         0.500000000         0.273651987
     0.681078434         0.500000000         0.318921596
     0.681078434         0.545269608         0.364191204
     0.726347983         0.500000000         0.364191204
     0.726347983         0.545269608         0.318921596
     0.681078434         0.500000000         0.409460783
     0.681078434         0.545269608         0.454730392
     0.726347983         0.500000000         0.454730392
     0.726347983         0.545269608         0.409460783
     0.681078434         0.500000000         0.500000000
     0.681078434         0.545269608         0.545269608
     0.726347983         0.500000000         0.545269608
     0.726347983         0.545269608         0.500000000
     0.681078434         0.500000000         0.590539217
     0.681078434         0.545269608         0.635808825
     0.726347983         0.500000000         0.635808825
     0.726347983         0.545269608         0.590539217
     0.681078434         0.500000000         0.681078434
     0.681078434         0.545269608         0.726347983
     0.726347983         0.500000000         0.726347983
     0.726347983         0.545269608         0.681078434
     0.681078434         0.500000000         0.771617591
     0.681078434         0.590539217         0.318921596
     0.681078434         0.635808825         0.364191204
     0.726347983         0.590539217         0.364191204
     0.681078434         0.590539217         0.409460783
     0.681078434         0.635808825         0.454730392
     0.726347983         0.590539217         0.454730392
     0.726347983         0.635808825         0.409460783
     0.681078434         0.590539217         0.500000000
     0.681078434         0.635808825         0.545269608
     0.726347983         0.590539217         0.545269608
     0.726347983         0.635808825         0.500000000
     0.681078434         0.590539217         0.590539217
     0.681078434         0.635808825         0.635808825
     0.726347983         0.590539217         0.635808825
     0.726347983         0.635808825         0.590539217
     0.681078434         0.590539217         0.681078434
     0.681078434         0.681078434         0.409460783
     0.681078434         0.726347983         0.454730392
     0.726347983         0.681078434         0.454730392
     0.681078434         0.681078434         0.500000000
     0.681078434         0.726347983         0.545269608
     0.726347983         0.681078434         0.545269608
     0.726347983         0.726347983         0.500000000
     0.681078434         0.681078434         0.590539217
     0.681078434         0.771617591         0.500000000
     0.771617591         0.364191204         0.454730392
     0.771617591         0.318921596         0.500000000
     0.771617591         0.364191204         0.545269608
     0.771617591         0.454730392         0.364191204
     0.771617591         0.409460783         0.409460783
     0.771617591         0.454730392         0.454730392
     0.771617591         0.409460783         0.500000000
     0.771617591         0.454730392         0.545269608
     0.771617591         0.409460783         0.590539217
     0.771617591         0.454730392         0.635808825
     0.771617591         0.500000000         0.318921596
     0.771617591         0.545269608         0.364191204
     0.771617591         0.500000000         0.409460783
     0.771617591         0.545269608         0.454730392
     0.771617591         0.500000000         0.500000000
     0.771617591         0.545269608         0.545269608
     0.771617591         0.500000000         0.590539217
     0.771617591         0.545269608         0.635808825
     0.771617591         0.500000000         0.681078434
     0.771617591         0.590539217         0.409460783
     0.771617591         0.635808825         0.454730392
     0.771617591         0.590539217         0.500000000
     0.771617591         0.635808825         0.545269608
     0.771617591         0.590539217         0.590539217
     0.771617591         0.681078434         0.500000000
