Pt 
 1.0000000000000000
    43.7862133423487805    0.0000000000000000    0.0000000000000000
     0.0000000000000000   43.7862133423487805    0.0000000000000000
     0.0000000000000000    0.0000000000000000   43.7862133423487805
 Pt 
 711
Direct
  0.2736519906736695  0.2736519906736695  0.5000000000000000
  0.2283823888084034  0.3641911944042017  0.4547303981347339
  0.2736519906736695  0.3189215925389356  0.4547303981347339
  0.2736519906736695  0.3641911944042017  0.4094607962694678
  0.2283823888084034  0.3189215925389356  0.5000000000000000
  0.2283823888084034  0.3641911944042017  0.5452696018652661
  0.2736519906736695  0.3189215925389356  0.5452696018652661
  0.2736519906736695  0.3641911944042017  0.5000000000000000
  0.2736519906736695  0.3641911944042017  0.5905392037305323
  0.2283823888084034  0.4547303981347339  0.3641911944042017
  0.2736519906736695  0.4094607962694678  0.3641911944042017
  0.2736519906736695  0.4547303981347339  0.3189215925389356
  0.2283823888084034  0.4094607962694678  0.4094607962694678
  0.2283823888084034  0.4547303981347339  0.4547303981347339
  0.2736519906736695  0.4094607962694678  0.4547303981347339
  0.2736519906736695  0.4547303981347339  0.4094607962694678
  0.2283823888084034  0.4094607962694678  0.5000000000000000
  0.2283823888084034  0.4547303981347339  0.5452696018652661
  0.2736519906736695  0.4094607962694678  0.5452696018652661
  0.2736519906736695  0.4547303981347339  0.5000000000000000
  0.2283823888084034  0.4094607962694678  0.5905392037305323
  0.2283823888084034  0.4547303981347339  0.6358088055957983
  0.2736519906736695  0.4094607962694678  0.6358088055957983
  0.2736519906736695  0.4547303981347339  0.5905392037305323
  0.2736519906736695  0.4547303981347339  0.6810784074610644
  0.2736519906736695  0.5000000000000000  0.2736519906736695
  0.2283823888084034  0.5000000000000000  0.3189215925389356
  0.2283823888084034  0.5452696018652661  0.3641911944042017
  0.2736519906736695  0.5000000000000000  0.3641911944042017
  0.2736519906736695  0.5452696018652661  0.3189215925389356
  0.2283823888084034  0.5000000000000000  0.4094607962694678
  0.2283823888084034  0.5452696018652661  0.4547303981347339
  0.2736519906736695  0.5000000000000000  0.4547303981347339
  0.2736519906736695  0.5452696018652661  0.4094607962694678
  0.2283823888084034  0.5000000000000000  0.5000000000000000
  0.2283823888084034  0.5452696018652661  0.5452696018652661
  0.2736519906736695  0.5000000000000000  0.5452696018652661
  0.2736519906736695  0.5452696018652661  0.5000000000000000
  0.2283823888084034  0.5000000000000000  0.5905392037305323
  0.2283823888084034  0.5452696018652661  0.6358088055957983
  0.2736519906736695  0.5000000000000000  0.6358088055957983
  0.2736519906736695  0.5452696018652661  0.5905392037305323
  0.2283823888084034  0.5000000000000000  0.6810784074610644
  0.2736519906736695  0.5000000000000000  0.7263480093263305
  0.2736519906736695  0.5452696018652661  0.6810784074610644
  0.2736519906736695  0.5905392037305323  0.3641911944042017
  0.2283823888084034  0.5905392037305323  0.4094607962694678
  0.2283823888084034  0.6358088055957983  0.4547303981347339
  0.2736519906736695  0.5905392037305323  0.4547303981347339
  0.2736519906736695  0.6358088055957983  0.4094607962694678
  0.2283823888084034  0.5905392037305323  0.5000000000000000
  0.2283823888084034  0.6358088055957983  0.5452696018652661
  0.2736519906736695  0.5905392037305323  0.5452696018652661
  0.2736519906736695  0.6358088055957983  0.5000000000000000
  0.2283823888084034  0.5905392037305323  0.5905392037305323
  0.2736519906736695  0.5905392037305323  0.6358088055957983
  0.2736519906736695  0.6358088055957983  0.5905392037305323
  0.2736519906736695  0.6810784074610644  0.4547303981347339
  0.2283823888084034  0.6810784074610644  0.5000000000000000
  0.2736519906736695  0.6810784074610644  0.5452696018652661
  0.2736519906736695  0.7263480093263305  0.5000000000000000
  0.3189215925389356  0.2736519906736695  0.4547303981347339
  0.3641911944042017  0.2283823888084034  0.4547303981347339
  0.3641911944042017  0.2736519906736695  0.4094607962694678
  0.3189215925389356  0.2283823888084034  0.5000000000000000
  0.3189215925389356  0.2736519906736695  0.5452696018652661
  0.3641911944042017  0.2283823888084034  0.5452696018652661
  0.3641911944042017  0.2736519906736695  0.5000000000000000
  0.3641911944042017  0.2736519906736695  0.5905392037305323
  0.3189215925389356  0.3641911944042017  0.3641911944042017
  0.3641911944042017  0.3189215925389356  0.3641911944042017
  0.3641911944042017  0.3641911944042017  0.3189215925389356
  0.3189215925389356  0.3189215925389356  0.4094607962694678
  0.3189215925389356  0.3641911944042017  0.4547303981347339
  0.3641911944042017  0.3189215925389356  0.4547303981347339
  0.3641911944042017  0.3641911944042017  0.4094607962694678
  0.3189215925389356  0.3189215925389356  0.5000000000000000
  0.3189215925389356  0.3641911944042017  0.5452696018652661
  0.3641911944042017  0.3189215925389356  0.5452696018652661
  0.3641911944042017  0.3641911944042017  0.5000000000000000
  0.3189215925389356  0.3189215925389356  0.5905392037305323
  0.3189215925389356  0.3641911944042017  0.6358088055957983
  0.3641911944042017  0.3189215925389356  0.6358088055957983
  0.3641911944042017  0.3641911944042017  0.5905392037305323
  0.3641911944042017  0.3641911944042017  0.6810784074610644
  0.3189215925389356  0.4547303981347339  0.2736519906736695
  0.3641911944042017  0.4094607962694678  0.2736519906736695
  0.3641911944042017  0.4547303981347339  0.2283823888084034
  0.3189215925389356  0.4094607962694678  0.3189215925389356
  0.3189215925389356  0.4547303981347339  0.3641911944042017
  0.3641911944042017  0.4094607962694678  0.3641911944042017
  0.3641911944042017  0.4547303981347339  0.3189215925389356
  0.3189215925389356  0.4094607962694678  0.4094607962694678
  0.3189215925389356  0.4547303981347339  0.4547303981347339
  0.3641911944042017  0.4094607962694678  0.4547303981347339
  0.3641911944042017  0.4547303981347339  0.4094607962694678
  0.3189215925389356  0.4094607962694678  0.5000000000000000
  0.3189215925389356  0.4547303981347339  0.5452696018652661
  0.3641911944042017  0.4094607962694678  0.5452696018652661
  0.3641911944042017  0.4547303981347339  0.5000000000000000
  0.3189215925389356  0.4094607962694678  0.5905392037305323
  0.3189215925389356  0.4547303981347339  0.6358088055957983
  0.3641911944042017  0.4094607962694678  0.6358088055957983
  0.3641911944042017  0.4547303981347339  0.5905392037305323
  0.3189215925389356  0.4094607962694678  0.6810784074610644
  0.3189215925389356  0.4547303981347339  0.7263480093263305
  0.3641911944042017  0.4094607962694678  0.7263480093263305
  0.3641911944042017  0.4547303981347339  0.6810784074610644
  0.3641911944042017  0.4547303981347339  0.7716176111915967
  0.3189215925389356  0.5000000000000000  0.2283823888084034
  0.3189215925389356  0.5452696018652661  0.2736519906736695
  0.3641911944042017  0.5000000000000000  0.2736519906736695
  0.3641911944042017  0.5452696018652661  0.2283823888084034
  0.3189215925389356  0.5000000000000000  0.3189215925389356
  0.3189215925389356  0.5452696018652661  0.3641911944042017
  0.3641911944042017  0.5000000000000000  0.3641911944042017
  0.3641911944042017  0.5452696018652661  0.3189215925389356
  0.3189215925389356  0.5000000000000000  0.4094607962694678
  0.3189215925389356  0.5452696018652661  0.4547303981347339
  0.3641911944042017  0.5000000000000000  0.4547303981347339
  0.3641911944042017  0.5452696018652661  0.4094607962694678
  0.3189215925389356  0.5000000000000000  0.5000000000000000
  0.3189215925389356  0.5452696018652661  0.5452696018652661
  0.3641911944042017  0.5000000000000000  0.5452696018652661
  0.3641911944042017  0.5452696018652661  0.5000000000000000
  0.3189215925389356  0.5000000000000000  0.5905392037305323
  0.3189215925389356  0.5452696018652661  0.6358088055957983
  0.3641911944042017  0.5000000000000000  0.6358088055957983
  0.3641911944042017  0.5452696018652661  0.5905392037305323
  0.3189215925389356  0.5000000000000000  0.6810784074610644
  0.3189215925389356  0.5452696018652661  0.7263480093263305
  0.3641911944042017  0.5000000000000000  0.7263480093263305
  0.3641911944042017  0.5452696018652661  0.6810784074610644
  0.3189215925389356  0.5000000000000000  0.7716176111915967
  0.3641911944042017  0.5452696018652661  0.7716176111915967
  0.3641911944042017  0.5905392037305323  0.2736519906736695
  0.3189215925389356  0.5905392037305323  0.3189215925389356
  0.3189215925389356  0.6358088055957983  0.3641911944042017
  0.3641911944042017  0.5905392037305323  0.3641911944042017
  0.3641911944042017  0.6358088055957983  0.3189215925389356
  0.3189215925389356  0.5905392037305323  0.4094607962694678
  0.3189215925389356  0.6358088055957983  0.4547303981347339
  0.3641911944042017  0.5905392037305323  0.4547303981347339
  0.3641911944042017  0.6358088055957983  0.4094607962694678
  0.3189215925389356  0.5905392037305323  0.5000000000000000
  0.3189215925389356  0.6358088055957983  0.5452696018652661
  0.3641911944042017  0.5905392037305323  0.5452696018652661
  0.3641911944042017  0.6358088055957983  0.5000000000000000
  0.3189215925389356  0.5905392037305323  0.5905392037305323
  0.3189215925389356  0.6358088055957983  0.6358088055957983
  0.3641911944042017  0.5905392037305323  0.6358088055957983
  0.3641911944042017  0.6358088055957983  0.5905392037305323
  0.3189215925389356  0.5905392037305323  0.6810784074610644
  0.3641911944042017  0.5905392037305323  0.7263480093263305
  0.3641911944042017  0.6358088055957983  0.6810784074610644
  0.3641911944042017  0.6810784074610644  0.3641911944042017
  0.3189215925389356  0.6810784074610644  0.4094607962694678
  0.3189215925389356  0.7263480093263305  0.4547303981347339
  0.3641911944042017  0.6810784074610644  0.4547303981347339
  0.3641911944042017  0.7263480093263305  0.4094607962694678
  0.3189215925389356  0.6810784074610644  0.5000000000000000
  0.3189215925389356  0.7263480093263305  0.5452696018652661
  0.3641911944042017  0.6810784074610644  0.5452696018652661
  0.3641911944042017  0.7263480093263305  0.5000000000000000
  0.3189215925389356  0.6810784074610644  0.5905392037305323
  0.3641911944042017  0.6810784074610644  0.6358088055957983
  0.3641911944042017  0.7263480093263305  0.5905392037305323
  0.3641911944042017  0.7716176111915967  0.4547303981347339
  0.3189215925389356  0.7716176111915967  0.5000000000000000
  0.3641911944042017  0.7716176111915967  0.5452696018652661
  0.4094607962694678  0.2736519906736695  0.3641911944042017
  0.4547303981347339  0.2283823888084034  0.3641911944042017
  0.4547303981347339  0.2736519906736695  0.3189215925389356
  0.4094607962694678  0.2283823888084034  0.4094607962694678
  0.4094607962694678  0.2736519906736695  0.4547303981347339
  0.4547303981347339  0.2283823888084034  0.4547303981347339
  0.4547303981347339  0.2736519906736695  0.4094607962694678
  0.4094607962694678  0.2283823888084034  0.5000000000000000
  0.4094607962694678  0.2736519906736695  0.5452696018652661
  0.4547303981347339  0.2283823888084034  0.5452696018652661
  0.4547303981347339  0.2736519906736695  0.5000000000000000
  0.4094607962694678  0.2283823888084034  0.5905392037305323
  0.4094607962694678  0.2736519906736695  0.6358088055957983
  0.4547303981347339  0.2283823888084034  0.6358088055957983
  0.4547303981347339  0.2736519906736695  0.5905392037305323
  0.4547303981347339  0.2736519906736695  0.6810784074610644
  0.4094607962694678  0.3641911944042017  0.2736519906736695
  0.4547303981347339  0.3189215925389356  0.2736519906736695
  0.4547303981347339  0.3641911944042017  0.2283823888084034
  0.4094607962694678  0.3189215925389356  0.3189215925389356
  0.4094607962694678  0.3641911944042017  0.3641911944042017
  0.4547303981347339  0.3189215925389356  0.3641911944042017
  0.4547303981347339  0.3641911944042017  0.3189215925389356
  0.4094607962694678  0.3189215925389356  0.4094607962694678
  0.4094607962694678  0.3641911944042017  0.4547303981347339
  0.4547303981347339  0.3189215925389356  0.4547303981347339
  0.4547303981347339  0.3641911944042017  0.4094607962694678
  0.4094607962694678  0.3189215925389356  0.5000000000000000
  0.4094607962694678  0.3641911944042017  0.5452696018652661
  0.4547303981347339  0.3189215925389356  0.5452696018652661
  0.4547303981347339  0.3641911944042017  0.5000000000000000
  0.4094607962694678  0.3189215925389356  0.5905392037305323
  0.4094607962694678  0.3641911944042017  0.6358088055957983
  0.4547303981347339  0.3189215925389356  0.6358088055957983
  0.4547303981347339  0.3641911944042017  0.5905392037305323
  0.4094607962694678  0.3189215925389356  0.6810784074610644
  0.4094607962694678  0.3641911944042017  0.7263480093263305
  0.4547303981347339  0.3189215925389356  0.7263480093263305
  0.4547303981347339  0.3641911944042017  0.6810784074610644
  0.4547303981347339  0.3641911944042017  0.7716176111915967
  0.4094607962694678  0.4094607962694678  0.2283823888084034
  0.4094607962694678  0.4547303981347339  0.2736519906736695
  0.4547303981347339  0.4094607962694678  0.2736519906736695
  0.4547303981347339  0.4547303981347339  0.2283823888084034
  0.4094607962694678  0.4094607962694678  0.3189215925389356
  0.4094607962694678  0.4547303981347339  0.3641911944042017
  0.4547303981347339  0.4094607962694678  0.3641911944042017
  0.4547303981347339  0.4547303981347339  0.3189215925389356
  0.4094607962694678  0.4094607962694678  0.4094607962694678
  0.4094607962694678  0.4547303981347339  0.4547303981347339
  0.4547303981347339  0.4094607962694678  0.4547303981347339
  0.4547303981347339  0.4547303981347339  0.4094607962694678
  0.4094607962694678  0.4094607962694678  0.5000000000000000
  0.4094607962694678  0.4547303981347339  0.5452696018652661
  0.4547303981347339  0.4094607962694678  0.5452696018652661
  0.4547303981347339  0.4547303981347339  0.5000000000000000
  0.4094607962694678  0.4094607962694678  0.5905392037305323
  0.4094607962694678  0.4547303981347339  0.6358088055957983
  0.4547303981347339  0.4094607962694678  0.6358088055957983
  0.4547303981347339  0.4547303981347339  0.5905392037305323
  0.4094607962694678  0.4094607962694678  0.6810784074610644
  0.4094607962694678  0.4547303981347339  0.7263480093263305
  0.4547303981347339  0.4094607962694678  0.7263480093263305
  0.4547303981347339  0.4547303981347339  0.6810784074610644
  0.4094607962694678  0.4094607962694678  0.7716176111915967
  0.4547303981347339  0.4547303981347339  0.7716176111915967
  0.4094607962694678  0.5000000000000000  0.2283823888084034
  0.4094607962694678  0.5452696018652661  0.2736519906736695
  0.4547303981347339  0.5000000000000000  0.2736519906736695
  0.4547303981347339  0.5452696018652661  0.2283823888084034
  0.4094607962694678  0.5000000000000000  0.3189215925389356
  0.4094607962694678  0.5452696018652661  0.3641911944042017
  0.4547303981347339  0.5000000000000000  0.3641911944042017
  0.4547303981347339  0.5452696018652661  0.3189215925389356
  0.4094607962694678  0.5000000000000000  0.4094607962694678
  0.4094607962694678  0.5452696018652661  0.4547303981347339
  0.4547303981347339  0.5000000000000000  0.4547303981347339
  0.4547303981347339  0.5452696018652661  0.4094607962694678
  0.4094607962694678  0.5000000000000000  0.5000000000000000
  0.4094607962694678  0.5452696018652661  0.5452696018652661
  0.4547303981347339  0.5000000000000000  0.5452696018652661
  0.4547303981347339  0.5452696018652661  0.5000000000000000
  0.4094607962694678  0.5000000000000000  0.5905392037305323
  0.4094607962694678  0.5452696018652661  0.6358088055957983
  0.4547303981347339  0.5000000000000000  0.6358088055957983
  0.4547303981347339  0.5452696018652661  0.5905392037305323
  0.4094607962694678  0.5000000000000000  0.6810784074610644
  0.4094607962694678  0.5452696018652661  0.7263480093263305
  0.4547303981347339  0.5000000000000000  0.7263480093263305
  0.4547303981347339  0.5452696018652661  0.6810784074610644
  0.4094607962694678  0.5000000000000000  0.7716176111915967
  0.4547303981347339  0.5452696018652661  0.7716176111915967
  0.4094607962694678  0.5905392037305323  0.2283823888084034
  0.4094607962694678  0.6358088055957983  0.2736519906736695
  0.4547303981347339  0.5905392037305323  0.2736519906736695
  0.4547303981347339  0.6358088055957983  0.2283823888084034
  0.4094607962694678  0.5905392037305323  0.3189215925389356
  0.4094607962694678  0.6358088055957983  0.3641911944042017
  0.4547303981347339  0.5905392037305323  0.3641911944042017
  0.4547303981347339  0.6358088055957983  0.3189215925389356
  0.4094607962694678  0.5905392037305323  0.4094607962694678
  0.4094607962694678  0.6358088055957983  0.4547303981347339
  0.4547303981347339  0.5905392037305323  0.4547303981347339
  0.4547303981347339  0.6358088055957983  0.4094607962694678
  0.4094607962694678  0.5905392037305323  0.5000000000000000
  0.4094607962694678  0.6358088055957983  0.5452696018652661
  0.4547303981347339  0.5905392037305323  0.5452696018652661
  0.4547303981347339  0.6358088055957983  0.5000000000000000
  0.4094607962694678  0.5905392037305323  0.5905392037305323
  0.4094607962694678  0.6358088055957983  0.6358088055957983
  0.4547303981347339  0.5905392037305323  0.6358088055957983
  0.4547303981347339  0.6358088055957983  0.5905392037305323
  0.4094607962694678  0.5905392037305323  0.6810784074610644
  0.4094607962694678  0.6358088055957983  0.7263480093263305
  0.4547303981347339  0.5905392037305323  0.7263480093263305
  0.4547303981347339  0.6358088055957983  0.6810784074610644
  0.4094607962694678  0.5905392037305323  0.7716176111915967
  0.4547303981347339  0.6358088055957983  0.7716176111915967
  0.4547303981347339  0.6810784074610644  0.2736519906736695
  0.4094607962694678  0.6810784074610644  0.3189215925389356
  0.4094607962694678  0.7263480093263305  0.3641911944042017
  0.4547303981347339  0.6810784074610644  0.3641911944042017
  0.4547303981347339  0.7263480093263305  0.3189215925389356
  0.4094607962694678  0.6810784074610644  0.4094607962694678
  0.4094607962694678  0.7263480093263305  0.4547303981347339
  0.4547303981347339  0.6810784074610644  0.4547303981347339
  0.4547303981347339  0.7263480093263305  0.4094607962694678
  0.4094607962694678  0.6810784074610644  0.5000000000000000
  0.4094607962694678  0.7263480093263305  0.5452696018652661
  0.4547303981347339  0.6810784074610644  0.5452696018652661
  0.4547303981347339  0.7263480093263305  0.5000000000000000
  0.4094607962694678  0.6810784074610644  0.5905392037305323
  0.4094607962694678  0.7263480093263305  0.6358088055957983
  0.4547303981347339  0.6810784074610644  0.6358088055957983
  0.4547303981347339  0.7263480093263305  0.5905392037305323
  0.4094607962694678  0.6810784074610644  0.6810784074610644
  0.4547303981347339  0.6810784074610644  0.7263480093263305
  0.4547303981347339  0.7263480093263305  0.6810784074610644
  0.4547303981347339  0.7716176111915967  0.3641911944042017
  0.4094607962694678  0.7716176111915967  0.4094607962694678
  0.4547303981347339  0.7716176111915967  0.4547303981347339
  0.4094607962694678  0.7716176111915967  0.5000000000000000
  0.4547303981347339  0.7716176111915967  0.5452696018652661
  0.4094607962694678  0.7716176111915967  0.5905392037305323
  0.4547303981347339  0.7716176111915967  0.6358088055957983
  0.5000000000000000  0.2736519906736695  0.2736519906736695
  0.5000000000000000  0.2283823888084034  0.3189215925389356
  0.5000000000000000  0.2736519906736695  0.3641911944042017
  0.5452696018652661  0.2283823888084034  0.3641911944042017
  0.5452696018652661  0.2736519906736695  0.3189215925389356
  0.5000000000000000  0.2283823888084034  0.4094607962694678
  0.5000000000000000  0.2736519906736695  0.4547303981347339
  0.5452696018652661  0.2283823888084034  0.4547303981347339
  0.5452696018652661  0.2736519906736695  0.4094607962694678
  0.5000000000000000  0.2283823888084034  0.5000000000000000
  0.5000000000000000  0.2736519906736695  0.5452696018652661
  0.5452696018652661  0.2283823888084034  0.5452696018652661
  0.5452696018652661  0.2736519906736695  0.5000000000000000
  0.5000000000000000  0.2283823888084034  0.5905392037305323
  0.5000000000000000  0.2736519906736695  0.6358088055957983
  0.5452696018652661  0.2283823888084034  0.6358088055957983
  0.5452696018652661  0.2736519906736695  0.5905392037305323
  0.5000000000000000  0.2283823888084034  0.6810784074610644
  0.5000000000000000  0.2736519906736695  0.7263480093263305
  0.5452696018652661  0.2736519906736695  0.6810784074610644
  0.5000000000000000  0.3189215925389356  0.2283823888084034
  0.5000000000000000  0.3641911944042017  0.2736519906736695
  0.5452696018652661  0.3189215925389356  0.2736519906736695
  0.5452696018652661  0.3641911944042017  0.2283823888084034
  0.5000000000000000  0.3189215925389356  0.3189215925389356
  0.5000000000000000  0.3641911944042017  0.3641911944042017
  0.5452696018652661  0.3189215925389356  0.3641911944042017
  0.5452696018652661  0.3641911944042017  0.3189215925389356
  0.5000000000000000  0.3189215925389356  0.4094607962694678
  0.5000000000000000  0.3641911944042017  0.4547303981347339
  0.5452696018652661  0.3189215925389356  0.4547303981347339
  0.5452696018652661  0.3641911944042017  0.4094607962694678
  0.5000000000000000  0.3189215925389356  0.5000000000000000
  0.5000000000000000  0.3641911944042017  0.5452696018652661
  0.5452696018652661  0.3189215925389356  0.5452696018652661
  0.5452696018652661  0.3641911944042017  0.5000000000000000
  0.5000000000000000  0.3189215925389356  0.5905392037305323
  0.5000000000000000  0.3641911944042017  0.6358088055957983
  0.5452696018652661  0.3189215925389356  0.6358088055957983
  0.5452696018652661  0.3641911944042017  0.5905392037305323
  0.5000000000000000  0.3189215925389356  0.6810784074610644
  0.5000000000000000  0.3641911944042017  0.7263480093263305
  0.5452696018652661  0.3189215925389356  0.7263480093263305
  0.5452696018652661  0.3641911944042017  0.6810784074610644
  0.5000000000000000  0.3189215925389356  0.7716176111915967
  0.5452696018652661  0.3641911944042017  0.7716176111915967
  0.5000000000000000  0.4094607962694678  0.2283823888084034
  0.5000000000000000  0.4547303981347339  0.2736519906736695
  0.5452696018652661  0.4094607962694678  0.2736519906736695
  0.5452696018652661  0.4547303981347339  0.2283823888084034
  0.5000000000000000  0.4094607962694678  0.3189215925389356
  0.5000000000000000  0.4547303981347339  0.3641911944042017
  0.5452696018652661  0.4094607962694678  0.3641911944042017
  0.5452696018652661  0.4547303981347339  0.3189215925389356
  0.5000000000000000  0.4094607962694678  0.4094607962694678
  0.5000000000000000  0.4547303981347339  0.4547303981347339
  0.5452696018652661  0.4094607962694678  0.4547303981347339
  0.5452696018652661  0.4547303981347339  0.4094607962694678
  0.5000000000000000  0.4094607962694678  0.5000000000000000
  0.5000000000000000  0.4547303981347339  0.5452696018652661
  0.5452696018652661  0.4094607962694678  0.5452696018652661
  0.5452696018652661  0.4547303981347339  0.5000000000000000
  0.5000000000000000  0.4094607962694678  0.5905392037305323
  0.5000000000000000  0.4547303981347339  0.6358088055957983
  0.5452696018652661  0.4094607962694678  0.6358088055957983
  0.5452696018652661  0.4547303981347339  0.5905392037305323
  0.5000000000000000  0.4094607962694678  0.6810784074610644
  0.5000000000000000  0.4547303981347339  0.7263480093263305
  0.5452696018652661  0.4094607962694678  0.7263480093263305
  0.5452696018652661  0.4547303981347339  0.6810784074610644
  0.5000000000000000  0.4094607962694678  0.7716176111915967
  0.5452696018652661  0.4547303981347339  0.7716176111915967
  0.5000000000000000  0.5000000000000000  0.2283823888084034
  0.5000000000000000  0.5452696018652661  0.2736519906736695
  0.5452696018652661  0.5000000000000000  0.2736519906736695
  0.5452696018652661  0.5452696018652661  0.2283823888084034
  0.5000000000000000  0.5000000000000000  0.3189215925389356
  0.5000000000000000  0.5452696018652661  0.3641911944042017
  0.5452696018652661  0.5000000000000000  0.3641911944042017
  0.5452696018652661  0.5452696018652661  0.3189215925389356
  0.5000000000000000  0.5000000000000000  0.4094607962694678
  0.5000000000000000  0.5452696018652661  0.4547303981347339
  0.5452696018652661  0.5000000000000000  0.4547303981347339
  0.5452696018652661  0.5452696018652661  0.4094607962694678
  0.5000000000000000  0.5000000000000000  0.5000000000000000
  0.5000000000000000  0.5452696018652661  0.5452696018652661
  0.5452696018652661  0.5000000000000000  0.5452696018652661
  0.5452696018652661  0.5452696018652661  0.5000000000000000
  0.5000000000000000  0.5000000000000000  0.5905392037305323
  0.5000000000000000  0.5452696018652661  0.6358088055957983
  0.5452696018652661  0.5000000000000000  0.6358088055957983
  0.5452696018652661  0.5452696018652661  0.5905392037305323
  0.5000000000000000  0.5000000000000000  0.6810784074610644
  0.5000000000000000  0.5452696018652661  0.7263480093263305
  0.5452696018652661  0.5000000000000000  0.7263480093263305
  0.5452696018652661  0.5452696018652661  0.6810784074610644
  0.5000000000000000  0.5000000000000000  0.7716176111915967
  0.5452696018652661  0.5452696018652661  0.7716176111915967
  0.5000000000000000  0.5905392037305323  0.2283823888084034
  0.5000000000000000  0.6358088055957983  0.2736519906736695
  0.5452696018652661  0.5905392037305323  0.2736519906736695
  0.5452696018652661  0.6358088055957983  0.2283823888084034
  0.5000000000000000  0.5905392037305323  0.3189215925389356
  0.5000000000000000  0.6358088055957983  0.3641911944042017
  0.5452696018652661  0.5905392037305323  0.3641911944042017
  0.5452696018652661  0.6358088055957983  0.3189215925389356
  0.5000000000000000  0.5905392037305323  0.4094607962694678
  0.5000000000000000  0.6358088055957983  0.4547303981347339
  0.5452696018652661  0.5905392037305323  0.4547303981347339
  0.5452696018652661  0.6358088055957983  0.4094607962694678
  0.5000000000000000  0.5905392037305323  0.5000000000000000
  0.5000000000000000  0.6358088055957983  0.5452696018652661
  0.5452696018652661  0.5905392037305323  0.5452696018652661
  0.5452696018652661  0.6358088055957983  0.5000000000000000
  0.5000000000000000  0.5905392037305323  0.5905392037305323
  0.5000000000000000  0.6358088055957983  0.6358088055957983
  0.5452696018652661  0.5905392037305323  0.6358088055957983
  0.5452696018652661  0.6358088055957983  0.5905392037305323
  0.5000000000000000  0.5905392037305323  0.6810784074610644
  0.5000000000000000  0.6358088055957983  0.7263480093263305
  0.5452696018652661  0.5905392037305323  0.7263480093263305
  0.5452696018652661  0.6358088055957983  0.6810784074610644
  0.5000000000000000  0.5905392037305323  0.7716176111915967
  0.5452696018652661  0.6358088055957983  0.7716176111915967
  0.5000000000000000  0.6810784074610644  0.2283823888084034
  0.5000000000000000  0.7263480093263305  0.2736519906736695
  0.5452696018652661  0.6810784074610644  0.2736519906736695
  0.5000000000000000  0.6810784074610644  0.3189215925389356
  0.5000000000000000  0.7263480093263305  0.3641911944042017
  0.5452696018652661  0.6810784074610644  0.3641911944042017
  0.5452696018652661  0.7263480093263305  0.3189215925389356
  0.5000000000000000  0.6810784074610644  0.4094607962694678
  0.5000000000000000  0.7263480093263305  0.4547303981347339
  0.5452696018652661  0.6810784074610644  0.4547303981347339
  0.5452696018652661  0.7263480093263305  0.4094607962694678
  0.5000000000000000  0.6810784074610644  0.5000000000000000
  0.5000000000000000  0.7263480093263305  0.5452696018652661
  0.5452696018652661  0.6810784074610644  0.5452696018652661
  0.5452696018652661  0.7263480093263305  0.5000000000000000
  0.5000000000000000  0.6810784074610644  0.5905392037305323
  0.5000000000000000  0.7263480093263305  0.6358088055957983
  0.5452696018652661  0.6810784074610644  0.6358088055957983
  0.5452696018652661  0.7263480093263305  0.5905392037305323
  0.5000000000000000  0.6810784074610644  0.6810784074610644
  0.5000000000000000  0.7263480093263305  0.7263480093263305
  0.5452696018652661  0.6810784074610644  0.7263480093263305
  0.5452696018652661  0.7263480093263305  0.6810784074610644
  0.5000000000000000  0.6810784074610644  0.7716176111915967
  0.5000000000000000  0.7716176111915967  0.3189215925389356
  0.5452696018652661  0.7716176111915967  0.3641911944042017
  0.5000000000000000  0.7716176111915967  0.4094607962694678
  0.5452696018652661  0.7716176111915967  0.4547303981347339
  0.5000000000000000  0.7716176111915967  0.5000000000000000
  0.5452696018652661  0.7716176111915967  0.5452696018652661
  0.5000000000000000  0.7716176111915967  0.5905392037305323
  0.5452696018652661  0.7716176111915967  0.6358088055957983
  0.5000000000000000  0.7716176111915967  0.6810784074610644
  0.5905392037305323  0.2736519906736695  0.3641911944042017
  0.5905392037305323  0.2283823888084034  0.4094607962694678
  0.5905392037305323  0.2736519906736695  0.4547303981347339
  0.6358088055957983  0.2283823888084034  0.4547303981347339
  0.6358088055957983  0.2736519906736695  0.4094607962694678
  0.5905392037305323  0.2283823888084034  0.5000000000000000
  0.5905392037305323  0.2736519906736695  0.5452696018652661
  0.6358088055957983  0.2283823888084034  0.5452696018652661
  0.6358088055957983  0.2736519906736695  0.5000000000000000
  0.5905392037305323  0.2283823888084034  0.5905392037305323
  0.5905392037305323  0.2736519906736695  0.6358088055957983
  0.6358088055957983  0.2736519906736695  0.5905392037305323
  0.5905392037305323  0.3641911944042017  0.2736519906736695
  0.5905392037305323  0.3189215925389356  0.3189215925389356
  0.5905392037305323  0.3641911944042017  0.3641911944042017
  0.6358088055957983  0.3189215925389356  0.3641911944042017
  0.6358088055957983  0.3641911944042017  0.3189215925389356
  0.5905392037305323  0.3189215925389356  0.4094607962694678
  0.5905392037305323  0.3641911944042017  0.4547303981347339
  0.6358088055957983  0.3189215925389356  0.4547303981347339
  0.6358088055957983  0.3641911944042017  0.4094607962694678
  0.5905392037305323  0.3189215925389356  0.5000000000000000
  0.5905392037305323  0.3641911944042017  0.5452696018652661
  0.6358088055957983  0.3189215925389356  0.5452696018652661
  0.6358088055957983  0.3641911944042017  0.5000000000000000
  0.5905392037305323  0.3189215925389356  0.5905392037305323
  0.5905392037305323  0.3641911944042017  0.6358088055957983
  0.6358088055957983  0.3189215925389356  0.6358088055957983
  0.6358088055957983  0.3641911944042017  0.5905392037305323
  0.5905392037305323  0.3189215925389356  0.6810784074610644
  0.5905392037305323  0.3641911944042017  0.7263480093263305
  0.6358088055957983  0.3641911944042017  0.6810784074610644
  0.5905392037305323  0.4094607962694678  0.2283823888084034
  0.5905392037305323  0.4547303981347339  0.2736519906736695
  0.6358088055957983  0.4094607962694678  0.2736519906736695
  0.6358088055957983  0.4547303981347339  0.2283823888084034
  0.5905392037305323  0.4094607962694678  0.3189215925389356
  0.5905392037305323  0.4547303981347339  0.3641911944042017
  0.6358088055957983  0.4094607962694678  0.3641911944042017
  0.6358088055957983  0.4547303981347339  0.3189215925389356
  0.5905392037305323  0.4094607962694678  0.4094607962694678
  0.5905392037305323  0.4547303981347339  0.4547303981347339
  0.6358088055957983  0.4094607962694678  0.4547303981347339
  0.6358088055957983  0.4547303981347339  0.4094607962694678
  0.5905392037305323  0.4094607962694678  0.5000000000000000
  0.5905392037305323  0.4547303981347339  0.5452696018652661
  0.6358088055957983  0.4094607962694678  0.5452696018652661
  0.6358088055957983  0.4547303981347339  0.5000000000000000
  0.5905392037305323  0.4094607962694678  0.5905392037305323
  0.5905392037305323  0.4547303981347339  0.6358088055957983
  0.6358088055957983  0.4094607962694678  0.6358088055957983
  0.6358088055957983  0.4547303981347339  0.5905392037305323
  0.5905392037305323  0.4094607962694678  0.6810784074610644
  0.5905392037305323  0.4547303981347339  0.7263480093263305
  0.6358088055957983  0.4094607962694678  0.7263480093263305
  0.6358088055957983  0.4547303981347339  0.6810784074610644
  0.5905392037305323  0.4094607962694678  0.7716176111915967
  0.6358088055957983  0.4547303981347339  0.7716176111915967
  0.5905392037305323  0.5000000000000000  0.2283823888084034
  0.5905392037305323  0.5452696018652661  0.2736519906736695
  0.6358088055957983  0.5000000000000000  0.2736519906736695
  0.6358088055957983  0.5452696018652661  0.2283823888084034
  0.5905392037305323  0.5000000000000000  0.3189215925389356
  0.5905392037305323  0.5452696018652661  0.3641911944042017
  0.6358088055957983  0.5000000000000000  0.3641911944042017
  0.6358088055957983  0.5452696018652661  0.3189215925389356
  0.5905392037305323  0.5000000000000000  0.4094607962694678
  0.5905392037305323  0.5452696018652661  0.4547303981347339
  0.6358088055957983  0.5000000000000000  0.4547303981347339
  0.6358088055957983  0.5452696018652661  0.4094607962694678
  0.5905392037305323  0.5000000000000000  0.5000000000000000
  0.5905392037305323  0.5452696018652661  0.5452696018652661
  0.6358088055957983  0.5000000000000000  0.5452696018652661
  0.6358088055957983  0.5452696018652661  0.5000000000000000
  0.5905392037305323  0.5000000000000000  0.5905392037305323
  0.5905392037305323  0.5452696018652661  0.6358088055957983
  0.6358088055957983  0.5000000000000000  0.6358088055957983
  0.6358088055957983  0.5452696018652661  0.5905392037305323
  0.5905392037305323  0.5000000000000000  0.6810784074610644
  0.5905392037305323  0.5452696018652661  0.7263480093263305
  0.6358088055957983  0.5000000000000000  0.7263480093263305
  0.6358088055957983  0.5452696018652661  0.6810784074610644
  0.5905392037305323  0.5000000000000000  0.7716176111915967
  0.6358088055957983  0.5452696018652661  0.7716176111915967
  0.5905392037305323  0.5905392037305323  0.2283823888084034
  0.5905392037305323  0.6358088055957983  0.2736519906736695
  0.6358088055957983  0.5905392037305323  0.2736519906736695
  0.5905392037305323  0.5905392037305323  0.3189215925389356
  0.5905392037305323  0.6358088055957983  0.3641911944042017
  0.6358088055957983  0.5905392037305323  0.3641911944042017
  0.6358088055957983  0.6358088055957983  0.3189215925389356
  0.5905392037305323  0.5905392037305323  0.4094607962694678
  0.5905392037305323  0.6358088055957983  0.4547303981347339
  0.6358088055957983  0.5905392037305323  0.4547303981347339
  0.6358088055957983  0.6358088055957983  0.4094607962694678
  0.5905392037305323  0.5905392037305323  0.5000000000000000
  0.5905392037305323  0.6358088055957983  0.5452696018652661
  0.6358088055957983  0.5905392037305323  0.5452696018652661
  0.6358088055957983  0.6358088055957983  0.5000000000000000
  0.5905392037305323  0.5905392037305323  0.5905392037305323
  0.5905392037305323  0.6358088055957983  0.6358088055957983
  0.6358088055957983  0.5905392037305323  0.6358088055957983
  0.6358088055957983  0.6358088055957983  0.5905392037305323
  0.5905392037305323  0.5905392037305323  0.6810784074610644
  0.5905392037305323  0.6358088055957983  0.7263480093263305
  0.6358088055957983  0.5905392037305323  0.7263480093263305
  0.6358088055957983  0.6358088055957983  0.6810784074610644
  0.5905392037305323  0.5905392037305323  0.7716176111915967
  0.5905392037305323  0.6810784074610644  0.3189215925389356
  0.5905392037305323  0.7263480093263305  0.3641911944042017
  0.6358088055957983  0.6810784074610644  0.3641911944042017
  0.5905392037305323  0.6810784074610644  0.4094607962694678
  0.5905392037305323  0.7263480093263305  0.4547303981347339
  0.6358088055957983  0.6810784074610644  0.4547303981347339
  0.6358088055957983  0.7263480093263305  0.4094607962694678
  0.5905392037305323  0.6810784074610644  0.5000000000000000
  0.5905392037305323  0.7263480093263305  0.5452696018652661
  0.6358088055957983  0.6810784074610644  0.5452696018652661
  0.6358088055957983  0.7263480093263305  0.5000000000000000
  0.5905392037305323  0.6810784074610644  0.5905392037305323
  0.5905392037305323  0.7263480093263305  0.6358088055957983
  0.6358088055957983  0.6810784074610644  0.6358088055957983
  0.6358088055957983  0.7263480093263305  0.5905392037305323
  0.5905392037305323  0.6810784074610644  0.6810784074610644
  0.5905392037305323  0.7716176111915967  0.4094607962694678
  0.6358088055957983  0.7716176111915967  0.4547303981347339
  0.5905392037305323  0.7716176111915967  0.5000000000000000
  0.6358088055957983  0.7716176111915967  0.5452696018652661
  0.5905392037305323  0.7716176111915967  0.5905392037305323
  0.6810784074610644  0.2736519906736695  0.4547303981347339
  0.6810784074610644  0.2283823888084034  0.5000000000000000
  0.6810784074610644  0.2736519906736695  0.5452696018652661
  0.7263480093263305  0.2736519906736695  0.5000000000000000
  0.6810784074610644  0.3641911944042017  0.3641911944042017
  0.6810784074610644  0.3189215925389356  0.4094607962694678
  0.6810784074610644  0.3641911944042017  0.4547303981347339
  0.7263480093263305  0.3189215925389356  0.4547303981347339
  0.7263480093263305  0.3641911944042017  0.4094607962694678
  0.6810784074610644  0.3189215925389356  0.5000000000000000
  0.6810784074610644  0.3641911944042017  0.5452696018652661
  0.7263480093263305  0.3189215925389356  0.5452696018652661
  0.7263480093263305  0.3641911944042017  0.5000000000000000
  0.6810784074610644  0.3189215925389356  0.5905392037305323
  0.6810784074610644  0.3641911944042017  0.6358088055957983
  0.7263480093263305  0.3641911944042017  0.5905392037305323
  0.6810784074610644  0.4547303981347339  0.2736519906736695
  0.6810784074610644  0.4094607962694678  0.3189215925389356
  0.6810784074610644  0.4547303981347339  0.3641911944042017
  0.7263480093263305  0.4094607962694678  0.3641911944042017
  0.7263480093263305  0.4547303981347339  0.3189215925389356
  0.6810784074610644  0.4094607962694678  0.4094607962694678
  0.6810784074610644  0.4547303981347339  0.4547303981347339
  0.7263480093263305  0.4094607962694678  0.4547303981347339
  0.7263480093263305  0.4547303981347339  0.4094607962694678
  0.6810784074610644  0.4094607962694678  0.5000000000000000
  0.6810784074610644  0.4547303981347339  0.5452696018652661
  0.7263480093263305  0.4094607962694678  0.5452696018652661
  0.7263480093263305  0.4547303981347339  0.5000000000000000
  0.6810784074610644  0.4094607962694678  0.5905392037305323
  0.6810784074610644  0.4547303981347339  0.6358088055957983
  0.7263480093263305  0.4094607962694678  0.6358088055957983
  0.7263480093263305  0.4547303981347339  0.5905392037305323
  0.6810784074610644  0.4094607962694678  0.6810784074610644
  0.6810784074610644  0.4547303981347339  0.7263480093263305
  0.7263480093263305  0.4547303981347339  0.6810784074610644
  0.6810784074610644  0.5000000000000000  0.2283823888084034
  0.6810784074610644  0.5452696018652661  0.2736519906736695
  0.7263480093263305  0.5000000000000000  0.2736519906736695
  0.6810784074610644  0.5000000000000000  0.3189215925389356
  0.6810784074610644  0.5452696018652661  0.3641911944042017
  0.7263480093263305  0.5000000000000000  0.3641911944042017
  0.7263480093263305  0.5452696018652661  0.3189215925389356
  0.6810784074610644  0.5000000000000000  0.4094607962694678
  0.6810784074610644  0.5452696018652661  0.4547303981347339
  0.7263480093263305  0.5000000000000000  0.4547303981347339
  0.7263480093263305  0.5452696018652661  0.4094607962694678
  0.6810784074610644  0.5000000000000000  0.5000000000000000
  0.6810784074610644  0.5452696018652661  0.5452696018652661
  0.7263480093263305  0.5000000000000000  0.5452696018652661
  0.7263480093263305  0.5452696018652661  0.5000000000000000
  0.6810784074610644  0.5000000000000000  0.5905392037305323
  0.6810784074610644  0.5452696018652661  0.6358088055957983
  0.7263480093263305  0.5000000000000000  0.6358088055957983
  0.7263480093263305  0.5452696018652661  0.5905392037305323
  0.6810784074610644  0.5000000000000000  0.6810784074610644
  0.6810784074610644  0.5452696018652661  0.7263480093263305
  0.7263480093263305  0.5000000000000000  0.7263480093263305
  0.7263480093263305  0.5452696018652661  0.6810784074610644
  0.6810784074610644  0.5000000000000000  0.7716176111915967
  0.6810784074610644  0.5905392037305323  0.3189215925389356
  0.6810784074610644  0.6358088055957983  0.3641911944042017
  0.7263480093263305  0.5905392037305323  0.3641911944042017
  0.6810784074610644  0.5905392037305323  0.4094607962694678
  0.6810784074610644  0.6358088055957983  0.4547303981347339
  0.7263480093263305  0.5905392037305323  0.4547303981347339
  0.7263480093263305  0.6358088055957983  0.4094607962694678
  0.6810784074610644  0.5905392037305323  0.5000000000000000
  0.6810784074610644  0.6358088055957983  0.5452696018652661
  0.7263480093263305  0.5905392037305323  0.5452696018652661
  0.7263480093263305  0.6358088055957983  0.5000000000000000
  0.6810784074610644  0.5905392037305323  0.5905392037305323
  0.6810784074610644  0.6358088055957983  0.6358088055957983
  0.7263480093263305  0.5905392037305323  0.6358088055957983
  0.7263480093263305  0.6358088055957983  0.5905392037305323
  0.6810784074610644  0.5905392037305323  0.6810784074610644
  0.6810784074610644  0.6810784074610644  0.4094607962694678
  0.6810784074610644  0.7263480093263305  0.4547303981347339
  0.7263480093263305  0.6810784074610644  0.4547303981347339
  0.6810784074610644  0.6810784074610644  0.5000000000000000
  0.6810784074610644  0.7263480093263305  0.5452696018652661
  0.7263480093263305  0.6810784074610644  0.5452696018652661
  0.7263480093263305  0.7263480093263305  0.5000000000000000
  0.6810784074610644  0.6810784074610644  0.5905392037305323
  0.6810784074610644  0.7716176111915967  0.5000000000000000
  0.7716176111915967  0.3641911944042017  0.4547303981347339
  0.7716176111915967  0.3189215925389356  0.5000000000000000
  0.7716176111915967  0.3641911944042017  0.5452696018652661
  0.7716176111915967  0.4547303981347339  0.3641911944042017
  0.7716176111915967  0.4094607962694678  0.4094607962694678
  0.7716176111915967  0.4547303981347339  0.4547303981347339
  0.7716176111915967  0.4094607962694678  0.5000000000000000
  0.7716176111915967  0.4547303981347339  0.5452696018652661
  0.7716176111915967  0.4094607962694678  0.5905392037305323
  0.7716176111915967  0.4547303981347339  0.6358088055957983
  0.7716176111915967  0.5000000000000000  0.3189215925389356
  0.7716176111915967  0.5452696018652661  0.3641911944042017
  0.7716176111915967  0.5000000000000000  0.4094607962694678
  0.7716176111915967  0.5452696018652661  0.4547303981347339
  0.7716176111915967  0.5000000000000000  0.5000000000000000
  0.7716176111915967  0.5452696018652661  0.5452696018652661
  0.7716176111915967  0.5000000000000000  0.5905392037305323
  0.7716176111915967  0.5452696018652661  0.6358088055957983
  0.7716176111915967  0.5000000000000000  0.6810784074610644
  0.7716176111915967  0.5905392037305323  0.4094607962694678
  0.7716176111915967  0.6358088055957983  0.4547303981347339
  0.7716176111915967  0.5905392037305323  0.5000000000000000
  0.7716176111915967  0.6358088055957983  0.5452696018652661
  0.7716176111915967  0.5905392037305323  0.5905392037305323
  0.7716176111915967  0.6810784074610644  0.5000000000000000
