Al249 O135
1.0
   8.4283000000000001    0.0000000000000000    0.0000000000000000
   0.0000000000000000   14.5982000000000003    0.0000000000000000
   0.0000000000000000    0.0000000000000000   49.4762690000000021
Al O Al O
247 130 2 5
Selective dynamics
direct
   0.0135940000000000    0.1666670000000000    0.1172530000000000 F F F Al
   0.0135940000000000    0.5000000000000000    0.1172530000000000 F F F Al
   0.0135940000000000    0.8333330000000000    0.1172530000000000 F F F Al
   0.5135940000000000    0.0000000000000000    0.1172530000000000 F F F Al
   0.5135940000000000    0.3333330000000000    0.1172530000000000 F F F Al
   0.5135940000000000    0.6666660000000000    0.1172530000000000 F F F Al
   0.3469270000000000    0.1666670000000000    0.1514200000000000 F F F Al
   0.3469270000000000    0.5000000000000000    0.1514200000000000 F F F Al
   0.3469270000000000    0.8333330000000000    0.1514200000000000 F F F Al
   0.8469270000000000    0.0000000000000000    0.1514200000000000 F F F Al
   0.8469270000000000    0.3333330000000000    0.1514200000000000 F F F Al
   0.8469270000000000    0.6666670000000000    0.1514200000000000 F F F Al
   0.1802610000000000    0.0000000000000000    0.1613470000000000 F F F Al
   0.1802610000000000    0.3333330000000000    0.1613470000000000 F F F Al
   0.1802610000000000    0.6666660000000000    0.1613470000000000 F F F Al
   0.6802610000000000    0.1666670000000000    0.1613470000000000 F F F Al
   0.6802610000000000    0.5000000000000000    0.1613470000000000 F F F Al
   0.6802610000000000    0.8333330000000000    0.1613470000000000 F F F Al
   0.0135940000000000    0.1666670000000000    0.1955150000000000 F F F Al
   0.0135940000000000    0.5000000000000000    0.1955150000000000 F F F Al
   0.0135940000000000    0.8333330000000000    0.1955150000000000 F F F Al
   0.5135940000000000    0.0000000000000000    0.1955150000000000 F F F Al
   0.5135940000000000    0.3333330000000000    0.1955150000000000 F F F Al
   0.5135940000000000    0.6666660000000000    0.1955150000000000 F F F Al
   0.3469270000000000    0.1666670000000000    0.2054430000000000 F F F Al
   0.3469270000000000    0.5000000000000000    0.2054430000000000 F F F Al
   0.3469270000000000    0.8333330000000000    0.2054430000000000 F F F Al
   0.8469270000000000    0.0000000000000000    0.2054430000000000 F F F Al
   0.8469270000000000    0.3333330000000000    0.2054430000000000 F F F Al
   0.8469270000000000    0.6666670000000000    0.2054430000000000 F F F Al
   0.1802610000000000    0.0000000000000000    0.2396100000000000 F F F Al
   0.1802610000000000    0.3333330000000000    0.2396100000000000 F F F Al
   0.1802610000000000    0.6666660000000000    0.2396100000000000 F F F Al
   0.6802610000000000    0.1666670000000000    0.2396100000000000 F F F Al
   0.6802610000000000    0.5000000000000000    0.2396100000000000 F F F Al
   0.6802610000000000    0.8333330000000000    0.2396100000000000 F F F Al
   0.0135940000000000    0.1666670000000000    0.2495380000000000 F F F Al
   0.0135940000000000    0.5000000000000000    0.2495380000000000 F F F Al
   0.0135940000000000    0.8333330000000000    0.2495380000000000 F F F Al
   0.5135940000000000    0.0000000000000000    0.2495380000000000 F F F Al
   0.5135940000000000    0.3333330000000000    0.2495380000000000 F F F Al
   0.5135940000000000    0.6666660000000000    0.2495380000000000 F F F Al
   0.3469270000000000    0.1666670000000000    0.2837060000000000 F F F Al
   0.3469270000000000    0.5000000000000000    0.2837060000000000 F F F Al
   0.3469270000000000    0.8333330000000000    0.2837060000000000 F F F Al
   0.8469270000000000    0.0000000000000000    0.2837060000000000 F F F Al
   0.8469270000000000    0.3333330000000000    0.2837060000000000 F F F Al
   0.8469270000000000    0.6666670000000000    0.2837060000000000 F F F Al
   0.1802600000000000    0.0000000000000000    0.2936340000000000 F F F Al
   0.1802600000000000    0.3333330000000000    0.2936340000000000 F F F Al
   0.1802600000000000    0.6666660000000000    0.2936340000000000 F F F Al
   0.6802610000000000    0.1666670000000000    0.2936340000000000 F F F Al
   0.6802610000000000    0.5000000000000000    0.2936340000000000 F F F Al
   0.6802610000000000    0.8333330000000000    0.2936340000000000 F F F Al
   0.0135940000000000    0.1666670000000000    0.0632290000000000 F F F Al
   0.0135940000000000    0.1666670000000000    0.3278010000000000 F F F Al
   0.0135940000000000    0.5000000000000000    0.0632290000000000 F F F Al
   0.0135940000000000    0.5000000000000000    0.3278010000000000 F F F Al
   0.0135940000000000    0.8333330000000000    0.0632290000000000 F F F Al
   0.0135940000000000    0.8333330000000000    0.3278010000000000 F F F Al
   0.5135940000000000    0.0000000000000000    0.0632290000000000 F F F Al
   0.5135940000000000    0.0000000000000000    0.3278010000000000 F F F Al
   0.5135940000000000    0.3333330000000000    0.0632290000000000 F F F Al
   0.5135940000000000    0.3333330000000000    0.3278010000000000 F F F Al
   0.5135940000000000    0.6666660000000000    0.0632290000000000 F F F Al
   0.5135940000000000    0.6666660000000000    0.3278010000000000 F F F Al
   0.3469270000000000    0.1666670000000000    0.0731570000000000 F F F Al
   0.3469270000000000    0.1666670000000000    0.3377280000000000 F F F Al
   0.3469270000000000    0.5000000000000000    0.0731570000000000 F F F Al
   0.3469270000000000    0.5000000000000000    0.3377280000000000 F F F Al
   0.3469270000000000    0.8333330000000000    0.0731570000000000 F F F Al
   0.3469270000000000    0.8333330000000000    0.3377280000000000 F F F Al
   0.8469270000000000    0.0000000000000000    0.0731570000000000 F F F Al
   0.8469270000000000    0.0000000000000000    0.3377280000000000 F F F Al
   0.8469270000000000    0.3333330000000000    0.0731570000000000 F F F Al
   0.8469270000000000    0.3333330000000000    0.3377280000000000 F F F Al
   0.8469270000000000    0.6666670000000000    0.0731570000000000 F F F Al
   0.8469270000000000    0.6666670000000000    0.3377280000000000 F F F Al
   0.1802610000000000    0.0000000000000000    0.1073250000000000 F F F Al
   0.1802610000000000    0.3333330000000000    0.1073250000000000 F F F Al
   0.1802610000000000    0.6666660000000000    0.1073250000000000 F F F Al
   0.6802610000000000    0.1666670000000000    0.1073250000000000 F F F Al
   0.6802610000000000    0.5000000000000000    0.1073250000000000 F F F Al
   0.6802610000000000    0.8333330000000000    0.1073250000000000 F F F Al
   0.0135940000000000    0.1666670000000000    0.3741310000000000 F F F Al
   0.0135940000000000    0.5000000000000000    0.3741310000000000 F F F Al
   0.0135940000000000    0.8333330000000000    0.3741310000000000 F F F Al
   0.5135940000000000    0.0000000000000000    0.3741310000000000 F F F Al
   0.5135940000000000    0.3333330000000000    0.3741310000000000 F F F Al
   0.5135940000000000    0.6666660000000000    0.3741310000000000 F F F Al
   0.3469270000000000    0.1666670000000000    0.3840590000000000 F F F Al
   0.3469270000000000    0.5000000000000000    0.3840590000000000 F F F Al
   0.3469270000000000    0.8333330000000000    0.3840590000000000 F F F Al
   0.8469270000000000    0.0000000000000000    0.3840590000000000 F F F Al
   0.8469270000000000    0.3333330000000000    0.3840590000000000 F F F Al
   0.8469270000000000    0.6666670000000000    0.3840590000000000 F F F Al
   0.8333350000000000    0.0065260000000000    0.8104600000000000 F F F Al
   0.1666670000000000    0.0065260000000000    0.8104600000000000 F F F Al
   0.8333350000000000    0.0087010000000000    0.6693510000000000 F F F Al
   0.1666670000000000    0.0087010000000000    0.6693510000000000 F F F Al
   0.5000010000000000    0.1190870000000000    0.7165410000000000 F F F Al
   0.8333350000000000    0.2294730000000000    0.7637300000000000 F F F Al
   0.1666670000000000    0.2294730000000000    0.7637300000000000 F F F Al
   0.5000010000000000    0.3398590000000000    0.8109200000000000 F F F Al
   0.8333350000000000    0.0108770000000000    0.5282410000000000 F F F Al
   0.1666670000000000    0.0108770000000000    0.5282410000000000 F F F Al
   0.5000010000000000    0.1212620000000000    0.5754320000000001 F F F Al
   0.8333350000000000    0.2316480000000000    0.6226210000000000 F F F Al
   0.1666670000000000    0.2316480000000000    0.6226210000000000 F F F Al
   0.5000010000000000    0.3420340000000000    0.6698110000000000 F F F Al
   0.8333350000000000    0.4524200000000000    0.7170010000000000 F F F Al
   0.1666670000000000    0.4524200000000000    0.7170010000000000 F F F Al
   0.5000010000000000    0.5628060000000000    0.7641910000000000 F F F Al
   0.8333350000000000    0.6731920000000000    0.8113810000000000 F F F Al
   0.1666670000000000    0.6731920000000000    0.8113810000000000 F F F Al
   0.8333350000000000    0.2338240000000000    0.4815130000000000 F F F Al
   0.1666670000000000    0.2338240000000000    0.4815130000000000 F F F Al
   0.5000010000000000    0.3442100000000000    0.5287020000000000 F F F Al
   0.8333350000000000    0.4545950000000000    0.5758920000000000 F F F Al
   0.1666670000000000    0.4545950000000000    0.5758920000000000 F F F Al
   0.5000010000000000    0.5649810000000000    0.6230810000000000 F F F Al
   0.8333350000000000    0.6753670000000001    0.6702720000000000 F F F Al
   0.1666670000000000    0.6753670000000001    0.6702720000000000 F F F Al
   0.5000010000000000    0.7857530000000000    0.7174620000000000 F F F Al
   0.8333350000000000    0.8961390000000000    0.7646510000000000 F F F Al
   0.1666670000000000    0.8961390000000000    0.7646510000000000 F F F Al
   0.5000010000000000    0.5671570000000000    0.4819730000000000 F F F Al
   0.8333350000000000    0.6775430000000000    0.5291620000000000 F F F Al
   0.1666670000000000    0.6775430000000000    0.5291620000000000 F F F Al
   0.5000010000000000    0.7879280000000000    0.5763530000000000 F F F Al
   0.8333350000000000    0.8983139999999999    0.6235420000000000 F F F Al
   0.1666670000000000    0.8983139999999999    0.6235420000000000 F F F Al
   0.8333350000000000    0.9004900000000000    0.4824330000000000 F F F Al
   0.1666670000000000    0.9004900000000000    0.4824330000000000 F F F Al
   0.5000010000000000    0.0065260000000000    0.8104600000000000 F F F Al
   0.5000010000000000    0.0087010000000000    0.6693510000000000 F F F Al
   0.8333350000000000    0.1190870000000000    0.7165410000000000 F F F Al
   0.1666670000000000    0.1190870000000000    0.7165410000000000 F F F Al
   0.5000010000000000    0.2294730000000000    0.7637300000000000 F F F Al
   0.8333350000000000    0.3398590000000000    0.8109200000000000 F F F Al
   0.1666670000000000    0.3398590000000000    0.8109200000000000 F F F Al
   0.5000010000000000    0.0108770000000000    0.5282410000000000 F F F Al
   0.8333350000000000    0.1212620000000000    0.5754320000000001 F F F Al
   0.1666670000000000    0.1212620000000000    0.5754320000000001 F F F Al
   0.5000010000000000    0.2316480000000000    0.6226210000000000 F F F Al
   0.8333350000000000    0.3420340000000000    0.6698110000000000 F F F Al
   0.1666670000000000    0.3420340000000000    0.6698110000000000 F F F Al
   0.5000010000000000    0.4524200000000000    0.7170010000000000 F F F Al
   0.8333350000000000    0.5628060000000000    0.7641910000000000 F F F Al
   0.1666670000000000    0.5628060000000000    0.7641910000000000 F F F Al
   0.5000010000000000    0.6731920000000000    0.8113810000000000 F F F Al
   0.5000010000000000    0.2338240000000000    0.4815130000000000 F F F Al
   0.8333350000000000    0.3442100000000000    0.5287020000000000 F F F Al
   0.1666670000000000    0.3442100000000000    0.5287020000000000 F F F Al
   0.5000010000000000    0.4545950000000000    0.5758920000000000 F F F Al
   0.8333350000000000    0.5649810000000000    0.6230810000000000 F F F Al
   0.1666670000000000    0.5649810000000000    0.6230810000000000 F F F Al
   0.5000010000000000    0.6753670000000001    0.6702720000000000 F F F Al
   0.8333350000000000    0.7857530000000000    0.7174620000000000 F F F Al
   0.1666670000000000    0.7857530000000000    0.7174620000000000 F F F Al
   0.5000010000000000    0.8961390000000000    0.7646510000000000 F F F Al
   0.8333350000000000    0.5671570000000000    0.4819730000000000 F F F Al
   0.1666670000000000    0.5671570000000000    0.4819730000000000 F F F Al
   0.5000010000000000    0.6775430000000000    0.5291620000000000 F F F Al
   0.8333350000000000    0.7879280000000000    0.5763530000000000 F F F Al
   0.1666670000000000    0.7879280000000000    0.5763530000000000 F F F Al
   0.5000010000000000    0.8983139999999999    0.6235420000000000 F F F Al
   0.5000010000000000    0.9004900000000000    0.4824330000000000 F F F Al
   0.6666680000000000    0.0628070000000000    0.7635000000000000 F F F Al
   0.0000000000000000    0.0628070000000000    0.7635000000000000 F F F Al
   0.3333340000000000    0.1731920000000000    0.8106910000000001 F F F Al
   0.6666680000000000    0.0649820000000000    0.6223910000000000 F F F Al
   0.0000000000000000    0.0649820000000000    0.6223910000000000 F F F Al
   0.3333340000000000    0.1753680000000000    0.6695810000000000 F F F Al
   0.6666680000000000    0.2857540000000000    0.7167710000000000 F F F Al
   0.0000000000000000    0.2857540000000000    0.7167710000000000 F F F Al
   0.3333340000000000    0.3961400000000000    0.7639610000000000 F F F Al
   0.6666680000000000    0.5065250000000000    0.8111510000000000 F F F Al
   0.0000000000000000    0.5065250000000000    0.8111510000000000 F F F Al
   0.6666680000000000    0.0671570000000000    0.4812820000000000 F F F Al
   0.0000000000000000    0.0671570000000000    0.4812820000000000 F F F Al
   0.3333340000000000    0.1775430000000000    0.5284720000000001 F F F Al
   0.6666680000000000    0.2879290000000000    0.5756610000000000 F F F Al
   0.0000000000000000    0.2879290000000000    0.5756610000000000 F F F Al
   0.3333340000000000    0.3983150000000000    0.6228520000000000 F F F Al
   0.6666680000000000    0.5087010000000000    0.6700420000000000 F F F Al
   0.0000000000000000    0.5087010000000000    0.6700420000000000 F F F Al
   0.3333340000000000    0.6190870000000001    0.7172310000000000 F F F Al
   0.6666680000000000    0.7294730000000000    0.7644210000000000 F F F Al
   0.0000000000000000    0.7294730000000000    0.7644210000000000 F F F Al
   0.3333340000000000    0.8398590000000000    0.8116120000000000 F F F Al
   0.3333340000000000    0.4004900000000000    0.4817420000000000 F F F Al
   0.6666680000000000    0.5108760000000000    0.5289330000000000 F F F Al
   0.0000000000000000    0.5108760000000000    0.5289330000000000 F F F Al
   0.3333340000000000    0.6212620000000000    0.5761220000000000 F F F Al
   0.6666680000000000    0.7316480000000000    0.6233120000000000 F F F Al
   0.0000000000000000    0.7316480000000000    0.6233120000000000 F F F Al
   0.3333340000000000    0.8420339999999999    0.6705020000000000 F F F Al
   0.6666680000000000    0.9524200000000000    0.7176920000000000 F F F Al
   0.0000000000000000    0.9524200000000000    0.7176920000000000 F F F Al
   0.6666680000000000    0.7338230000000000    0.4822030000000000 F F F Al
   0.0000000000000000    0.7338230000000000    0.4822030000000000 F F F Al
   0.3333340000000000    0.8442090000000000    0.5293930000000000 F F F Al
   0.6666680000000000    0.9545950000000000    0.5765820000000000 F F F Al
   0.0000000000000000    0.9545950000000000    0.5765820000000000 F F F Al
   0.3333340000000000    0.0628070000000000    0.7635000000000000 F F F Al
   0.6666680000000000    0.1731920000000000    0.8106910000000001 F F F Al
   0.0000000000000000    0.1731920000000000    0.8106910000000001 F F F Al
   0.3333340000000000    0.0649820000000000    0.6223910000000000 F F F Al
   0.6666680000000000    0.1753680000000000    0.6695810000000000 F F F Al
   0.0000000000000000    0.1753680000000000    0.6695810000000000 F F F Al
   0.3333340000000000    0.2857540000000000    0.7167710000000000 F F F Al
   0.6666680000000000    0.3961400000000000    0.7639610000000000 F F F Al
   0.0000000000000000    0.3961400000000000    0.7639610000000000 F F F Al
   0.3333340000000000    0.5065250000000000    0.8111510000000000 F F F Al
   0.3333340000000000    0.0671570000000000    0.4812820000000000 F F F Al
   0.6666680000000000    0.1775430000000000    0.5284720000000001 F F F Al
   0.0000000000000000    0.1775430000000000    0.5284720000000001 F F F Al
   0.3333340000000000    0.2879290000000000    0.5756610000000000 F F F Al
   0.6666680000000000    0.3983150000000000    0.6228520000000000 F F F Al
   0.0000000000000000    0.3983150000000000    0.6228520000000000 F F F Al
   0.3333340000000000    0.5087010000000000    0.6700420000000000 F F F Al
   0.6666680000000000    0.6190870000000001    0.7172310000000000 F F F Al
   0.0000000000000000    0.6190870000000001    0.7172310000000000 F F F Al
   0.3333340000000000    0.7294730000000000    0.7644210000000000 F F F Al
   0.6666680000000000    0.8398590000000000    0.8116120000000000 F F F Al
   0.0000000000000000    0.8398590000000000    0.8116120000000000 F F F Al
   0.6666680000000000    0.4004900000000000    0.4817420000000000 F F F Al
   0.0000000000000000    0.4004900000000000    0.4817420000000000 F F F Al
   0.3333340000000000    0.5108760000000000    0.5289330000000000 F F F Al
   0.6666680000000000    0.6212620000000000    0.5761220000000000 F F F Al
   0.0000000000000000    0.6212620000000000    0.5761220000000000 F F F Al
   0.3333340000000000    0.7316480000000000    0.6233120000000000 F F F Al
   0.6666680000000000    0.8420339999999999    0.6705020000000000 F F F Al
   0.0000000000000000    0.8420339999999999    0.6705020000000000 F F F Al
   0.3333340000000000    0.9524200000000000    0.7176920000000000 F F F Al
   0.3333340000000000    0.7338230000000000    0.4822030000000000 F F F Al
   0.6666680000000000    0.8442090000000000    0.5293930000000000 F F F Al
   0.0000000000000000    0.8442090000000000    0.5293930000000000 F F F Al
   0.3333340000000000    0.9545950000000000    0.5765820000000000 F F F Al
   0.7555876184740330    0.8424193058803778    0.4215976327633092 F F F Al
   0.6745442419533852    0.5033437297678265    0.4222463379574881 F F F Al
   0.5331112013782991    0.9598250438800817    0.4234135967276737 F F F Al
   0.0375594867507621    0.5264859352948318    0.4234226973497118 F F F Al
   0.0985602192853123    0.7050249282046267    0.4234642588906463 F F F Al
   0.4574296568171837    0.3476912504848458    0.4244131923408843 F F F Al
   0.1506632362203805    0.3642645265439200    0.4256877071990071 F F F Al
   0.3469270000000000    0.0646180000000000    0.1784310000000000 F F F O
   0.3469270000000000    0.3979510000000000    0.1784310000000000 F F F O
   0.3469270000000000    0.7312840000000000    0.1784310000000000 F F F O
   0.8469270000000000    0.2312850000000000    0.1784310000000000 F F F O
   0.8469270000000000    0.5646180000000000    0.1784310000000000 F F F O
   0.8469270000000000    0.8979510000000001    0.1784310000000000 F F F O
   0.0271870000000000    0.2823090000000000    0.1343360000000000 F F F O
   0.0271870000000000    0.6156420000000000    0.1343360000000000 F F F O
   0.0271870000000000    0.9489750000000000    0.1343360000000000 F F F O
   0.5271870000000000    0.1156420000000000    0.1343360000000000 F F F O
   0.5271870000000000    0.4489760000000000    0.1343360000000000 F F F O
   0.5271870000000000    0.7823090000000000    0.1343360000000000 F F F O
   0.0000000000000000    0.0510240000000000    0.1784310000000000 F F F O
   0.0000000000000000    0.3843570000000000    0.1784310000000000 F F F O
   0.0000000000000000    0.7176910000000000    0.1784310000000000 F F F O
   0.5000000000000000    0.2176910000000000    0.1784310000000000 F F F O
   0.5000000000000000    0.5510240000000000    0.1784310000000000 F F F O
   0.5000000000000000    0.8843569999999999    0.1784310000000000 F F F O
   0.1938540000000000    0.2176910000000000    0.1784310000000000 F F F O
   0.1938540000000000    0.5510240000000000    0.1784310000000000 F F F O
   0.1938540000000000    0.8843569999999999    0.1784310000000000 F F F O
   0.6938540000000000    0.0510250000000000    0.1784310000000000 F F F O
   0.6938540000000000    0.3843580000000000    0.1784310000000000 F F F O
   0.6938540000000000    0.7176910000000000    0.1784310000000000 F F F O
   0.3333340000000000    0.2823090000000000    0.1343360000000000 F F F O
   0.3333340000000000    0.6156420000000000    0.1343360000000000 F F F O
   0.3333340000000000    0.9489750000000000    0.1343360000000000 F F F O
   0.8333340000000000    0.1156420000000000    0.1343360000000000 F F F O
   0.8333340000000000    0.4489760000000000    0.1343360000000000 F F F O
   0.8333340000000000    0.7823090000000000    0.1343360000000000 F F F O
   0.1802610000000000    0.1020490000000000    0.1343360000000000 F F F O
   0.1802610000000000    0.4353820000000000    0.1343360000000000 F F F O
   0.1802610000000000    0.7687150000000000    0.1343360000000000 F F F O
   0.6802610000000000    0.2687150000000000    0.1343360000000000 F F F O
   0.6802610000000000    0.6020489999999999    0.1343360000000000 F F F O
   0.6802610000000000    0.9353820000000000    0.1343360000000000 F F F O
   0.1802610000000000    0.2312850000000000    0.2666210000000000 F F F O
   0.1802610000000000    0.5646180000000000    0.2666210000000000 F F F O
   0.1802610000000000    0.8979510000000001    0.2666210000000000 F F F O
   0.6802610000000000    0.0646180000000000    0.2666210000000000 F F F O
   0.6802610000000000    0.3979510000000000    0.2666210000000000 F F F O
   0.6802610000000000    0.7312840000000000    0.2666210000000000 F F F O
   0.3605210000000000    0.2823090000000000    0.2225260000000000 F F F O
   0.3605210000000000    0.6156420000000000    0.2225260000000000 F F F O
   0.3605210000000000    0.9489750000000000    0.2225260000000000 F F F O
   0.8605210000000000    0.1156430000000000    0.2225260000000000 F F F O
   0.8605210000000000    0.4489760000000000    0.2225260000000000 F F F O
   0.8605210000000000    0.7823090000000000    0.2225260000000000 F F F O
   0.3333340000000000    0.0510250000000000    0.2666210000000000 F F F O
   0.3333340000000000    0.3843580000000000    0.2666210000000000 F F F O
   0.3333340000000000    0.7176910000000000    0.2666210000000000 F F F O
   0.8333340000000000    0.2176910000000000    0.2666210000000000 F F F O
   0.8333340000000000    0.5510240000000000    0.2666210000000000 F F F O
   0.8333340000000000    0.8843569999999999    0.2666210000000000 F F F O
   0.0271870000000000    0.0510250000000000    0.2666210000000000 F F F O
   0.0271870000000000    0.3843580000000000    0.2666210000000000 F F F O
   0.0271870000000000    0.7176910000000000    0.2666210000000000 F F F O
   0.5271870000000000    0.2176910000000000    0.2666210000000000 F F F O
   0.5271870000000000    0.5510240000000000    0.2666210000000000 F F F O
   0.5271870000000000    0.8843569999999999    0.2666210000000000 F F F O
   0.1666670000000000    0.1156420000000000    0.2225260000000000 F F F O
   0.1666670000000000    0.4489760000000000    0.2225260000000000 F F F O
   0.1666670000000000    0.7823090000000000    0.2225260000000000 F F F O
   0.6666670000000000    0.2823090000000000    0.2225260000000000 F F F O
   0.6666670000000000    0.6156420000000000    0.2225260000000000 F F F O
   0.6666670000000000    0.9489750000000000    0.2225260000000000 F F F O
   0.0135940000000000    0.2687150000000000    0.2225260000000000 F F F O
   0.0135940000000000    0.6020480000000000    0.2225260000000000 F F F O
   0.0135940000000000    0.9353820000000000    0.2225260000000000 F F F O
   0.5135940000000000    0.1020490000000000    0.2225260000000000 F F F O
   0.5135940000000000    0.4353820000000000    0.2225260000000000 F F F O
   0.5135940000000000    0.7687150000000000    0.2225260000000000 F F F O
   0.0135940000000000    0.0646180000000000    0.0902400000000000 F F F O
   0.0135940000000000    0.0646180000000000    0.3548120000000000 F F F O
   0.0135940000000000    0.3979510000000000    0.0902400000000000 F F F O
   0.0135940000000000    0.3979510000000000    0.3548120000000000 F F F O
   0.0135940000000000    0.7312840000000000    0.0902400000000000 F F F O
   0.0135940000000000    0.7312840000000000    0.3548120000000000 F F F O
   0.5135940000000000    0.2312850000000000    0.0902400000000000 F F F O
   0.5135940000000000    0.2312850000000000    0.3548120000000000 F F F O
   0.5135940000000000    0.5646180000000000    0.0902400000000000 F F F O
   0.5135940000000000    0.5646180000000000    0.3548120000000000 F F F O
   0.5135940000000000    0.8979510000000001    0.0902400000000000 F F F O
   0.5135940000000000    0.8979510000000001    0.3548120000000000 F F F O
   0.1938540000000000    0.1156420000000000    0.3107170000000000 F F F O
   0.1938540000000000    0.4489760000000000    0.3107170000000000 F F F O
   0.1938540000000000    0.7823090000000000    0.3107170000000000 F F F O
   0.6938540000000000    0.2823090000000000    0.3107170000000000 F F F O
   0.6938540000000000    0.6156420000000000    0.3107170000000000 F F F O
   0.6938540000000000    0.9489750000000000    0.3107170000000000 F F F O
   0.1666670000000000    0.2176910000000000    0.0902400000000000 F F F O
   0.1666670000000000    0.2176910000000000    0.3548120000000000 F F F O
   0.1666670000000000    0.5510240000000000    0.0902400000000000 F F F O
   0.1666670000000000    0.5510250000000000    0.3548120000000000 F F F O
   0.1666670000000000    0.8843569999999999    0.0902400000000000 F F F O
   0.1666670000000000    0.8843569999999999    0.3548120000000000 F F F O
   0.6666670000000000    0.0510250000000000    0.0902400000000000 F F F O
   0.6666670000000000    0.0510250000000000    0.3548120000000000 F F F O
   0.6666670000000000    0.3843580000000000    0.0902400000000000 F F F O
   0.6666670000000000    0.3843580000000000    0.3548120000000000 F F F O
   0.6666670000000000    0.7176910000000000    0.0902400000000000 F F F O
   0.6666670000000000    0.7176910000000000    0.3548120000000000 F F F O
   0.3605210000000000    0.0510240000000000    0.0902400000000000 F F F O
   0.3605210000000000    0.0510250000000000    0.3548120000000000 F F F O
   0.3605210000000000    0.3843570000000000    0.0902400000000000 F F F O
   0.3605210000000000    0.3843580000000000    0.3548120000000000 F F F O
   0.3605210000000000    0.7176910000000000    0.0902400000000000 F F F O
   0.3605210000000000    0.7176910000000000    0.3548120000000000 F F F O
   0.8605210000000000    0.2176910000000000    0.0902400000000000 F F F O
   0.8605210000000000    0.2176910000000000    0.3548120000000000 F F F O
   0.8605210000000000    0.5510240000000000    0.0902400000000000 F F F O
   0.8605210000000000    0.5510250000000000    0.3548120000000000 F F F O
   0.8605210000000000    0.8843569999999999    0.0902400000000000 F F F O
   0.8605210000000000    0.8843569999999999    0.3548120000000000 F F F O
   0.0000000000000000    0.2823090000000000    0.3107170000000000 F F F O
   0.0000000000000000    0.6156420000000000    0.3107170000000000 F F F O
   0.0000000000000000    0.9489750000000000    0.3107170000000000 F F F O
   0.5000000000000000    0.1156430000000000    0.3107170000000000 F F F O
   0.5000000000000000    0.4489760000000000    0.3107170000000000 F F F O
   0.5000000000000000    0.7823090000000000    0.3107170000000000 F F F O
   0.3469270000000000    0.2687150000000000    0.3107170000000000 F F F O
   0.3469270000000000    0.6020480000000000    0.3107170000000000 F F F O
   0.3469270000000000    0.9353810000000000    0.3107170000000000 F F F O
   0.8469270000000000    0.1020490000000000    0.3107170000000000 F F F O
   0.8469270000000000    0.4353820000000000    0.3107170000000000 F F F O
   0.8469270000000000    0.7687150000000000    0.3107170000000000 F F F O
   0.8954743585592386    0.7818439839126475    0.4051066857391500 F F F O
   0.9891498074201946    0.9136176738337536    0.4069120281488705 F F F O
   0.3403075582610745    0.6939017823744951    0.4074320510615210 F F F O
   0.5011926975698242    0.8319770960182371    0.4209725853749539 F F F O
   0.6232759692778722    0.2161655056377898    0.4207412833577214 F F F Al
   0.3426251302050982    0.5920596923420653    0.4350316053134684 F F F Al
   0.1598653807119887    0.1836985966674289    0.4248456239112342 F F F O
   0.0966204035989903    0.0000584334185102    0.4080442598361537 F F F O
   0.0324432611495518    0.2685043384935383    0.4346395483888523 F F F O
   0.8909235429185546    0.2318179251123170    0.4318675915482653 F F F O
   0.6968206143511055    0.9671481010493551    0.4031915265999088 F F F O
