Generated by pymatgen.io.lammps.data.LammpsData

380  atoms

  2  atom types

0.000000 8.428300  xlo xhi
0.000000 14.598200  ylo yhi
0.000000 49.476269  zlo zhi

Masses

1  26.981539
2  15.999400

Atoms

1    1 0.0000 0.114574  2.433038  5.801241
2    1 0.0000 0.114574  7.299100  5.801241
3    1 0.0000 0.114574 12.165162  5.801241
4    1 0.0000 4.328724  0.000000  5.801241
5    1 0.0000 4.328724  4.866062  5.801241
6    1 0.0000 4.328724  9.732124  5.801241
7    1 0.0000 2.924005  2.433038  7.491697
8    1 0.0000 2.924005  7.299100  7.491697
9    1 0.0000 2.924005 12.165162  7.491697
10   1 0.0000 7.138155  0.000000  7.491697
11   1 0.0000 7.138155  4.866062  7.491697
12   1 0.0000 7.138155  9.732138  7.491697
13   1 0.0000 1.519294  0.000000  7.982848
14   1 0.0000 1.519294  4.866062  7.982848
15   1 0.0000 1.519294  9.732124  7.982848
16   1 0.0000 5.733444  2.433038  7.982848
17   1 0.0000 5.733444  7.299100  7.982848
18   1 0.0000 5.733444 12.165162  7.982848
19   1 0.0000 0.114574  2.433038  9.673353
20   1 0.0000 0.114574  7.299100  9.673353
21   1 0.0000 0.114574 12.165162  9.673353
22   1 0.0000 4.328724  0.000000  9.673353
23   1 0.0000 4.328724  4.866062  9.673353
24   1 0.0000 4.328724  9.732124  9.673353
25   1 0.0000 2.924005  2.433038 10.164553
26   1 0.0000 2.924005  7.299100 10.164553
27   1 0.0000 2.924005 12.165162 10.164553
28   1 0.0000 7.138155  0.000000 10.164553
29   1 0.0000 7.138155  4.866062 10.164553
30   1 0.0000 7.138155  9.732138 10.164553
31   1 0.0000 1.519294  0.000000 11.855009
32   1 0.0000 1.519294  4.866062 11.855009
33   1 0.0000 1.519294  9.732124 11.855009
34   1 0.0000 5.733444  2.433038 11.855009
35   1 0.0000 5.733444  7.299100 11.855009
36   1 0.0000 5.733444 12.165162 11.855009
37   1 0.0000 0.114574  2.433038 12.346209
38   1 0.0000 0.114574  7.299100 12.346209
39   1 0.0000 0.114574 12.165162 12.346209
40   1 0.0000 4.328724  0.000000 12.346209
41   1 0.0000 4.328724  4.866062 12.346209
42   1 0.0000 4.328724  9.732124 12.346209
43   1 0.0000 2.924005  2.433038 14.036714
44   1 0.0000 2.924005  7.299100 14.036714
45   1 0.0000 2.924005 12.165162 14.036714
46   1 0.0000 7.138155  0.000000 14.036714
47   1 0.0000 7.138155  4.866062 14.036714
48   1 0.0000 7.138155  9.732138 14.036714
49   1 0.0000 1.519285  0.000000 14.527915
50   1 0.0000 1.519285  4.866062 14.527915
51   1 0.0000 1.519285  9.732124 14.527915
52   1 0.0000 5.733444  2.433038 14.527915
53   1 0.0000 5.733444  7.299100 14.527915
54   1 0.0000 5.733444 12.165162 14.527915
55   1 0.0000 0.114574  2.433038  3.128335
56   1 0.0000 0.114574  2.433038 16.218370
57   1 0.0000 0.114574  7.299100  3.128335
58   1 0.0000 0.114574  7.299100 16.218370
59   1 0.0000 0.114574 12.165162  3.128335
60   1 0.0000 0.114574 12.165162 16.218370
61   1 0.0000 4.328724  0.000000  3.128335
62   1 0.0000 4.328724  0.000000 16.218370
63   1 0.0000 4.328724  4.866062  3.128335
64   1 0.0000 4.328724  4.866062 16.218370
65   1 0.0000 4.328724  9.732124  3.128335
66   1 0.0000 4.328724  9.732124 16.218370
67   1 0.0000 2.924005  2.433038  3.619535
68   1 0.0000 2.924005  2.433038 16.709521
69   1 0.0000 2.924005  7.299100  3.619535
70   1 0.0000 2.924005  7.299100 16.709521
71   1 0.0000 2.924005 12.165162  3.619535
72   1 0.0000 2.924005 12.165162 16.709521
73   1 0.0000 7.138155  0.000000  3.619535
74   1 0.0000 7.138155  0.000000 16.709521
75   1 0.0000 7.138155  4.866062  3.619535
76   1 0.0000 7.138155  4.866062 16.709521
77   1 0.0000 7.138155  9.732138  3.619535
78   1 0.0000 7.138155  9.732138 16.709521
79   1 0.0000 1.519294  0.000000  5.310041
80   1 0.0000 1.519294  4.866062  5.310041
81   1 0.0000 1.519294  9.732124  5.310041
82   1 0.0000 5.733444  2.433038  5.310041
83   1 0.0000 5.733444  7.299100  5.310041
84   1 0.0000 5.733444 12.165162  5.310041
85   1 0.0000 0.114574  2.433038 18.510606
86   1 0.0000 0.114574  7.299100 18.510606
87   1 0.0000 0.114574 12.165162 18.510606
88   1 0.0000 4.328724  0.000000 18.510606
89   1 0.0000 4.328724  4.866062 18.510606
90   1 0.0000 4.328724  9.732124 18.510606
91   1 0.0000 2.924005  2.433038 19.001806
92   1 0.0000 2.924005  7.299100 19.001806
93   1 0.0000 2.924005 12.165162 19.001806
94   1 0.0000 7.138155  0.000000 19.001806
95   1 0.0000 7.138155  4.866062 19.001806
96   1 0.0000 7.138155  9.732138 19.001806
97   1 0.0000 7.023597  0.095268 40.098537
98   1 0.0000 1.404719  0.095268 40.098537
99   1 0.0000 7.023597  0.127019 33.116990
100  1 0.0000 1.404719  0.127019 33.116990
101  1 0.0000 4.214158  1.738456 35.451775
102  1 0.0000 7.023597  3.349893 37.786511
103  1 0.0000 1.404719  3.349893 37.786511
104  1 0.0000 4.214158  4.961330 40.121296
105  1 0.0000 7.023597  0.158785 26.135394
106  1 0.0000 1.404719  0.158785 26.135394
107  1 0.0000 4.214158  1.770207 28.470228
108  1 0.0000 7.023597  3.381644 30.804964
109  1 0.0000 1.404719  3.381644 30.804964
110  1 0.0000 4.214158  4.993081 33.139749
111  1 0.0000 7.023597  6.604518 35.474534
112  1 0.0000 1.404719  6.604518 35.474534
113  1 0.0000 4.214158  8.215955 37.809319
114  1 0.0000 7.023597  9.827391 40.144105
115  1 0.0000 1.404719  9.827391 40.144105
116  1 0.0000 7.023597  3.413410 23.823467
117  1 0.0000 1.404719  3.413410 23.823467
118  1 0.0000 4.214158  5.024846 26.158202
119  1 0.0000 7.023597  6.636269 28.492988
120  1 0.0000 1.404719  6.636269 28.492988
121  1 0.0000 4.214158  8.247706 30.827723
122  1 0.0000 7.023597  9.859143 33.162558
123  1 0.0000 1.404719  9.859143 33.162558
124  1 0.0000 4.214158 11.470579 35.497343
125  1 0.0000 7.023597 13.082016 37.832079
126  1 0.0000 1.404719 13.082016 37.832079
127  1 0.0000 4.214158  8.279471 23.846226
128  1 0.0000 7.023597  9.890908 26.180961
129  1 0.0000 1.404719  9.890908 26.180961
130  1 0.0000 4.214158 11.502331 28.515796
131  1 0.0000 7.023597 13.113767 30.850532
132  1 0.0000 1.404719 13.113767 30.850532
133  1 0.0000 7.023597 13.145533 23.868985
134  1 0.0000 1.404719 13.145533 23.868985
135  1 0.0000 4.214158  0.095268 40.098537
136  1 0.0000 4.214158  0.127019 33.116990
137  1 0.0000 7.023597  1.738456 35.451775
138  1 0.0000 1.404719  1.738456 35.451775
139  1 0.0000 4.214158  3.349893 37.786511
140  1 0.0000 7.023597  4.961330 40.121296
141  1 0.0000 1.404719  4.961330 40.121296
142  1 0.0000 4.214158  0.158785 26.135394
143  1 0.0000 7.023597  1.770207 28.470228
144  1 0.0000 1.404719  1.770207 28.470228
145  1 0.0000 4.214158  3.381644 30.804964
146  1 0.0000 7.023597  4.993081 33.139749
147  1 0.0000 1.404719  4.993081 33.139749
148  1 0.0000 4.214158  6.604518 35.474534
149  1 0.0000 7.023597  8.215955 37.809319
150  1 0.0000 1.404719  8.215955 37.809319
151  1 0.0000 4.214158  9.827391 40.144105
152  1 0.0000 4.214158  3.413410 23.823467
153  1 0.0000 7.023597  5.024846 26.158202
154  1 0.0000 1.404719  5.024846 26.158202
155  1 0.0000 4.214158  6.636269 28.492988
156  1 0.0000 7.023597  8.247706 30.827723
157  1 0.0000 1.404719  8.247706 30.827723
158  1 0.0000 4.214158  9.859143 33.162558
159  1 0.0000 7.023597 11.470579 35.497343
160  1 0.0000 1.404719 11.470579 35.497343
161  1 0.0000 4.214158 13.082016 37.832079
162  1 0.0000 7.023597  8.279471 23.846226
163  1 0.0000 1.404719  8.279471 23.846226
164  1 0.0000 4.214158  9.890908 26.180961
165  1 0.0000 7.023597 11.502331 28.515796
166  1 0.0000 1.404719 11.502331 28.515796
167  1 0.0000 4.214158 13.113767 30.850532
168  1 0.0000 4.214158 13.145533 23.868985
169  1 0.0000 5.618878  0.916869 37.775131
170  1 0.0000 0.000000  0.916869 37.775131
171  1 0.0000 2.809439  2.528291 40.109966
172  1 0.0000 5.618878  0.948620 30.793585
173  1 0.0000 0.000000  0.948620 30.793585
174  1 0.0000 2.809439  2.560057 33.128370
175  1 0.0000 5.618878  4.171494 35.463155
176  1 0.0000 0.000000  4.171494 35.463155
177  1 0.0000 2.809439  5.782931 37.797940
178  1 0.0000 5.618878  7.394353 40.132725
179  1 0.0000 0.000000  7.394353 40.132725
180  1 0.0000 5.618878  0.980371 23.812038
181  1 0.0000 0.000000  0.980371 23.812038
182  1 0.0000 2.809439  2.591808 26.146823
183  1 0.0000 5.618878  4.203245 28.481558
184  1 0.0000 0.000000  4.203245 28.481558
185  1 0.0000 2.809439  5.814682 30.816393
186  1 0.0000 5.618878  7.426119 33.151178
187  1 0.0000 0.000000  7.426119 33.151178
188  1 0.0000 2.809439  9.037556 35.485914
189  1 0.0000 5.618878 10.648993 37.820699
190  1 0.0000 0.000000 10.648993 37.820699
191  1 0.0000 2.809439 12.260430 40.155534
192  1 0.0000 2.809439  5.846433 23.834797
193  1 0.0000 5.618878  7.457870 26.169631
194  1 0.0000 0.000000  7.457870 26.169631
195  1 0.0000 2.809439  9.069307 28.504367
196  1 0.0000 5.618878 10.680744 30.839152
197  1 0.0000 0.000000 10.680744 30.839152
198  1 0.0000 2.809439 12.292181 33.173937
199  1 0.0000 5.618878 13.903618 35.508722
200  1 0.0000 0.000000 13.903618 35.508722
201  1 0.0000 5.618878 10.712495 23.857605
202  1 0.0000 0.000000 10.712495 23.857605
203  1 0.0000 2.809439 12.323932 26.192390
204  1 0.0000 5.618878 13.935369 28.527126
205  1 0.0000 0.000000 13.935369 28.527126
206  1 0.0000 2.809439  0.916869 37.775131
207  1 0.0000 5.618878  2.528291 40.109966
208  1 0.0000 0.000000  2.528291 40.109966
209  1 0.0000 2.809439  0.948620 30.793585
210  1 0.0000 5.618878  2.560057 33.128370
211  1 0.0000 0.000000  2.560057 33.128370
212  1 0.0000 2.809439  4.171494 35.463155
213  1 0.0000 5.618878  5.782931 37.797940
214  1 0.0000 0.000000  5.782931 37.797940
215  1 0.0000 2.809439  7.394353 40.132725
216  1 0.0000 2.809439  0.980371 23.812038
217  1 0.0000 5.618878  2.591808 26.146823
218  1 0.0000 0.000000  2.591808 26.146823
219  1 0.0000 2.809439  4.203245 28.481558
220  1 0.0000 5.618878  5.814682 30.816393
221  1 0.0000 0.000000  5.814682 30.816393
222  1 0.0000 2.809439  7.426119 33.151178
223  1 0.0000 5.618878  9.037556 35.485914
224  1 0.0000 0.000000  9.037556 35.485914
225  1 0.0000 2.809439 10.648993 37.820699
226  1 0.0000 5.618878 12.260430 40.155534
227  1 0.0000 0.000000 12.260430 40.155534
228  1 0.0000 5.618878  5.846433 23.834797
229  1 0.0000 0.000000  5.846433 23.834797
230  1 0.0000 2.809439  7.457870 26.169631
231  1 0.0000 5.618878  9.069307 28.504367
232  1 0.0000 0.000000  9.069307 28.504367
233  1 0.0000 2.809439 10.680744 30.839152
234  1 0.0000 5.618878 12.292181 33.173937
235  1 0.0000 0.000000 12.292181 33.173937
236  1 0.0000 2.809439 13.903618 35.508722
237  1 0.0000 2.809439 10.712495 23.857605
238  1 0.0000 5.618878 12.323932 26.192390
239  1 0.0000 0.000000 12.323932 26.192390
240  1 0.0000 2.809439 13.935369 28.527126
241  1 0.0000 1.519294  0.000000 21.275163
242  1 0.0000 4.214158  9.890908 21.470936
243  1 0.0000 5.618878 12.323932 21.482365
244  1 0.0000 4.328724  4.866062 21.638525
245  1 0.0000 5.733444  7.299100 21.147324
246  1 0.0000 0.114574  7.299100 21.638525
247  2 0.0000 2.924005  0.943306  8.828100
248  2 0.0000 2.924005  5.809368  8.828100
249  2 0.0000 2.924005 10.675430  8.828100
250  2 0.0000 7.138155  3.376345  8.828100
251  2 0.0000 7.138155  8.242406  8.828100
252  2 0.0000 7.138155 13.108468  8.828100
253  2 0.0000 0.229140  4.121203  6.646444
254  2 0.0000 0.229140  8.987265  6.646444
255  2 0.0000 0.229140 13.853327  6.646444
256  2 0.0000 4.443290  1.688165  6.646444
257  2 0.0000 4.443290  6.554241  6.646444
258  2 0.0000 4.443290 11.420303  6.646444
259  2 0.0000 0.000000  0.744859  8.828100
260  2 0.0000 0.000000  5.610920  8.828100
261  2 0.0000 0.000000 10.476997  8.828100
262  2 0.0000 4.214150  3.177897  8.828100
263  2 0.0000 4.214150  8.043959  8.828100
264  2 0.0000 4.214150 12.910020  8.828100
265  2 0.0000 1.633860  3.177897  8.828100
266  2 0.0000 1.633860  8.043959  8.828100
267  2 0.0000 1.633860 12.910020  8.828100
268  2 0.0000 5.848010  0.744873  8.828100
269  2 0.0000 5.848010  5.610935  8.828100
270  2 0.0000 5.848010 10.476997  8.828100
271  2 0.0000 2.809439  4.121203  6.646444
272  2 0.0000 2.809439  8.987265  6.646444
273  2 0.0000 2.809439 13.853327  6.646444
274  2 0.0000 7.023589  1.688165  6.646444
275  2 0.0000 7.023589  6.554241  6.646444
276  2 0.0000 7.023589 11.420303  6.646444
277  2 0.0000 1.519294  1.489732  6.646444
278  2 0.0000 1.519294  6.355794  6.646444
279  2 0.0000 1.519294 11.221855  6.646444
280  2 0.0000 5.733444  3.922755  6.646444
281  2 0.0000 5.733444  8.788832  6.646444
282  2 0.0000 5.733444 13.654894  6.646444
283  2 0.0000 1.519294  3.376345 13.191412
284  2 0.0000 1.519294  8.242406 13.191412
285  2 0.0000 1.519294 13.108468 13.191412
286  2 0.0000 5.733444  0.943306 13.191412
287  2 0.0000 5.733444  5.809368 13.191412
288  2 0.0000 5.733444 10.675430 13.191412
289  2 0.0000 3.038579  4.121203 11.009756
290  2 0.0000 3.038579  8.987265 11.009756
291  2 0.0000 3.038579 13.853327 11.009756
292  2 0.0000 7.252729  1.688180 11.009756
293  2 0.0000 7.252729  6.554241 11.009756
294  2 0.0000 7.252729 11.420303 11.009756
295  2 0.0000 2.809439  0.744873 13.191412
296  2 0.0000 2.809439  5.610935 13.191412
297  2 0.0000 2.809439 10.476997 13.191412
298  2 0.0000 7.023589  3.177897 13.191412
299  2 0.0000 7.023589  8.043959 13.191412
300  2 0.0000 7.023589 12.910020 13.191412
301  2 0.0000 0.229140  0.744873 13.191412
302  2 0.0000 0.229140  5.610935 13.191412
303  2 0.0000 0.229140 10.476997 13.191412
304  2 0.0000 4.443290  3.177897 13.191412
305  2 0.0000 4.443290  8.043959 13.191412
306  2 0.0000 4.443290 12.910020 13.191412
307  2 0.0000 1.404719  1.688165 11.009756
308  2 0.0000 1.404719  6.554241 11.009756
309  2 0.0000 1.404719 11.420303 11.009756
310  2 0.0000 5.618869  4.121203 11.009756
311  2 0.0000 5.618869  8.987265 11.009756
312  2 0.0000 5.618869 13.853327 11.009756
313  2 0.0000 0.114574  3.922755 11.009756
314  2 0.0000 0.114574  8.788817 11.009756
315  2 0.0000 0.114574 13.654894 11.009756
316  2 0.0000 4.328724  1.489732 11.009756
317  2 0.0000 4.328724  6.355794 11.009756
318  2 0.0000 4.328724 11.221855 11.009756
319  2 0.0000 0.114574  0.943306  4.464739
320  2 0.0000 0.114574  0.943306 17.554774
321  2 0.0000 0.114574  5.809368  4.464739
322  2 0.0000 0.114574  5.809368 17.554774
323  2 0.0000 0.114574 10.675430  4.464739
324  2 0.0000 0.114574 10.675430 17.554774
325  2 0.0000 4.328724  3.376345  4.464739
326  2 0.0000 4.328724  3.376345 17.554774
327  2 0.0000 4.328724  8.242406  4.464739
328  2 0.0000 4.328724  8.242406 17.554774
329  2 0.0000 4.328724 13.108468  4.464739
330  2 0.0000 4.328724 13.108468 17.554774
331  2 0.0000 1.633860  1.688165 15.373118
332  2 0.0000 1.633860  6.554241 15.373118
333  2 0.0000 1.633860 11.420303 15.373118
334  2 0.0000 5.848010  4.121203 15.373118
335  2 0.0000 5.848010  8.987265 15.373118
336  2 0.0000 5.848010 13.853327 15.373118
337  2 0.0000 1.404719  3.177897  4.464739
338  2 0.0000 1.404719  3.177897 17.554774
339  2 0.0000 1.404719  8.043959  4.464739
340  2 0.0000 1.404719  8.043973 17.554774
341  2 0.0000 1.404719 12.910020  4.464739
342  2 0.0000 1.404719 12.910020 17.554774
343  2 0.0000 5.618869  0.744873  4.464739
344  2 0.0000 5.618869  0.744873 17.554774
345  2 0.0000 5.618869  5.610935  4.464739
346  2 0.0000 5.618869  5.610935 17.554774
347  2 0.0000 5.618869 10.476997  4.464739
348  2 0.0000 5.618869 10.476997 17.554774
349  2 0.0000 3.038579  0.744859  4.464739
350  2 0.0000 3.038579  0.744873 17.554774
351  2 0.0000 3.038579  5.610920  4.464739
352  2 0.0000 3.038579  5.610935 17.554774
353  2 0.0000 3.038579 10.476997  4.464739
354  2 0.0000 3.038579 10.476997 17.554774
355  2 0.0000 7.252729  3.177897  4.464739
356  2 0.0000 7.252729  3.177897 17.554774
357  2 0.0000 7.252729  8.043959  4.464739
358  2 0.0000 7.252729  8.043973 17.554774
359  2 0.0000 7.252729 12.910020  4.464739
360  2 0.0000 7.252729 12.910020 17.554774
361  2 0.0000 0.000000  4.121203 15.373118
362  2 0.0000 0.000000  8.987265 15.373118
363  2 0.0000 0.000000 13.853327 15.373118
364  2 0.0000 4.214150  1.688180 15.373118
365  2 0.0000 4.214150  6.554241 15.373118
366  2 0.0000 4.214150 11.420303 15.373118
367  2 0.0000 2.924005  3.922755 15.373118
368  2 0.0000 2.924005  8.788817 15.373118
369  2 0.0000 2.924005 13.654879 15.373118
370  2 0.0000 7.138155  1.489732 15.373118
371  2 0.0000 7.138155  6.355794 15.373118
372  2 0.0000 7.138155 11.221855 15.373118
373  2 0.0000 7.023589  6.554241 19.938760
374  2 0.0000 3.038579  8.987265 20.302072
375  2 0.0000 7.252729 11.420303 20.302072
376  2 0.0000 7.023589  1.688165 19.938760
377  2 0.0000 4.328724 11.221855 20.302072
378  2 0.0000 1.404719 11.420303 20.302072
379  2 0.0000 3.038579  4.121203 20.302072
380  2 0.0000 5.733444  3.922755 19.938760

