pt320
1.0
       70.0000000000         0.0000000000         0.0000000000
        0.0000000000        70.0000000000         0.0000000000
        0.0000000000         0.0000000000        70.0000000000
   Pt
  320
Cartesian
    35.800746918        39.529750824        33.613048553
    39.003799438        37.264900208        33.613048553
    42.206798553        35.000000000        33.613048553
    45.409801483        32.735099792        33.613048553
    27.793199539        41.794647217        36.386951447
    30.996198654        39.529750824        36.386951447
    34.199249268        37.264900208        36.386951447
    37.402248383        35.000000000        36.386951447
    40.605297089        32.735099792        36.386951447
    26.191699982        39.529750824        39.160850525
    32.597751617        41.794647217        33.613048553
    29.394701004        37.264900208        39.160850525
    35.800746918        32.735099792        39.160850525
    27.793199539        35.000000000        41.934749603
    30.996198654        32.735099792        41.934749603
    37.402248383        41.794647217        25.291349411
    40.605297089        39.529750824        25.291349411
    32.597751617        35.000000000        39.160850525
    29.394701004        44.059497833        33.613048553
    43.808300018        37.264900208        30.839151382
    40.605297089        39.529750824        30.839151382
    43.808300018        37.264900208        41.934749603
    35.800746918        39.529750824        44.708648682
    39.003799438        37.264900208        44.708648682
    39.003799438        44.059497833        33.613048553
    42.206798553        41.794647217        33.613048553
    34.199249268        44.059497833        36.386951447
    37.402248383        41.794647217        36.386951447
    40.605297089        39.529750824        36.386951447
    43.808300018        37.264900208        36.386951447
    29.394701004        44.059497833        39.160850525
    32.597751617        41.794647217        39.160850525
    35.800746918        39.529750824        39.160850525
    39.003799438        37.264900208        39.160850525
    42.206798553        35.000000000        39.160850525
    45.409801483        32.735099792        39.160850525
    30.996198654        39.529750824        41.934749603
    34.199249268        37.264900208        41.934749603
    37.402248383        35.000000000        41.934749603
    40.605297089        32.735099792        41.934749603
    32.597751617        35.000000000        44.708648682
    35.800746918        32.735099792        44.708648682
    39.003799438        44.059497833        28.065248489
    42.206798553        41.794647217        28.065248489
    34.199249268        44.059497833        30.839151382
    37.402248383        41.794647217        30.839151382
    32.597751617        41.794647217        28.065248489
    35.800746918        39.529750824        28.065248489
    39.003799438        37.264900208        28.065248489
    42.206798553        35.000000000        28.065248489
    24.590198517        37.264900208        30.839151382
    27.793199539        35.000000000        30.839151382
    30.996198654        32.735099792        30.839151382
    26.191699982        32.735099792        33.613048553
    30.996198654        32.735099792        25.291349411
    26.191699982        32.735099792        28.065248489
    39.003799438        44.059497833        41.934749603
    42.206798553        41.794647217        41.934749603
    37.402248383        41.794647217        44.708648682
    40.605297089        39.529750824        44.708648682
    35.800746918        32.735099792        28.065248489
    40.605297089        39.529750824        41.934749603
    32.597751617        35.000000000        28.065248489
    37.402248383        35.000000000        25.291349411
    27.793199539        41.794647217        30.839151382
    30.996198654        39.529750824        30.839151382
    34.199249268        37.264900208        30.839151382
    37.402248383        35.000000000        30.839151382
    40.605297089        32.735099792        30.839151382
    26.191699982        39.529750824        33.613048553
    29.394701004        37.264900208        33.613048553
    32.597751617        35.000000000        33.613048553
    35.800746918        32.735099792        33.613048553
    24.590198517        37.264900208        36.386951447
    27.793199539        35.000000000        36.386951447
    30.996198654        32.735099792        36.386951447
    26.191699982        32.735099792        39.160850525
    34.199249268        37.264900208        25.291349411
    29.394701004        37.264900208        28.065248489
    39.003799438        44.059497833        36.386951447
    37.402248383        41.794647217        41.934749603
    42.206798553        41.794647217        39.160850525
    38.202999115        39.529750824        32.226100922
    41.406051636        37.264900208        32.226100922
    44.609046936        35.000000000        32.226100922
    26.992450714        44.059497833        35.000000000
    30.195449829        41.794647217        35.000000000
    33.398502350        39.529750824        35.000000000
    36.601501465        37.264900208        35.000000000
    39.804550171        35.000000000        35.000000000
    43.007553101        32.735099792        35.000000000
    25.390949249        41.794647217        37.773899078
    35.000000000        41.794647217        32.226100922
    28.593950272        39.529750824        37.773899078
    35.000000000        35.000000000        37.773899078
    38.202999115        32.735099792        37.773899078
    26.992450714        37.264900208        40.547798157
    30.195449829        35.000000000        40.547798157
    33.398502350        32.735099792        40.547798157
    28.593950272        32.735099792        43.321697235
    31.796998978        37.264900208        37.773899078
    31.796998978        44.059497833        32.226100922
    43.007553101        39.529750824        29.452199936
    39.804550171        41.794647217        29.452199936
    39.804550171        41.794647217        40.547798157
    43.007553101        39.529750824        40.547798157
    35.000000000        41.794647217        43.321697235
    38.202999115        39.529750824        43.321697235
    41.406051636        37.264900208        43.321697235
    36.601501465        37.264900208        46.095600128
    41.406051636        44.059497833        32.226100922
    36.601501465        44.059497833        35.000000000
    39.804550171        41.794647217        35.000000000
    43.007553101        39.529750824        35.000000000
    31.796998978        44.059497833        37.773899078
    35.000000000        41.794647217        37.773899078
    38.202999115        39.529750824        37.773899078
    41.406051636        37.264900208        37.773899078
    44.609046936        35.000000000        37.773899078
    30.195449829        41.794647217        40.547798157
    33.398502350        39.529750824        40.547798157
    36.601501465        37.264900208        40.547798157
    39.804550171        35.000000000        40.547798157
    43.007553101        32.735099792        40.547798157
    31.796998978        37.264900208        43.321697235
    35.000000000        35.000000000        43.321697235
    38.202999115        32.735099792        43.321697235
    33.398502350        32.735099792        46.095600128
    36.601501465        44.059497833        29.452199936
    35.000000000        41.794647217        26.678298950
    38.202999115        39.529750824        26.678298950
    41.406051636        37.264900208        26.678298950
    35.000000000        35.000000000        26.678298950
    38.202999115        32.735099792        26.678298950
    26.992450714        37.264900208        29.452199936
    30.195449829        35.000000000        29.452199936
    33.398502350        32.735099792        29.452199936
    25.390949249        35.000000000        32.226100922
    28.593950272        32.735099792        32.226100922
    33.398502350        32.735099792        23.904399872
    28.593950272        32.735099792        26.678298950
    39.003799438        44.059497833        39.160850525
    31.796998978        37.264900208        26.678298950
    34.199249268        44.059497833        41.934749603
    36.601501465        37.264900208        23.904399872
    30.195449829        41.794647217        29.452199936
    33.398502350        39.529750824        29.452199936
    36.601501465        37.264900208        29.452199936
    39.804550171        35.000000000        29.452199936
    43.007553101        32.735099792        29.452199936
    25.390949249        41.794647217        32.226100922
    28.593950272        39.529750824        32.226100922
    31.796998978        37.264900208        32.226100922
    35.000000000        35.000000000        32.226100922
    38.202999115        32.735099792        32.226100922
    23.789449692        39.529750824        35.000000000
    26.992450714        37.264900208        35.000000000
    30.195449829        35.000000000        35.000000000
    33.398502350        32.735099792        35.000000000
    25.390949249        35.000000000        37.773899078
    28.593950272        32.735099792        37.773899078
    36.601501465        44.059497833        40.547798157
    42.206798553        41.794647217        36.386951447
    37.402248383        41.794647217        39.160850525
    33.398502350        32.735099792        43.321697235
    36.601501465        44.059497833        26.678298950
    39.804550171        41.794647217        26.678298950
    43.007553101        39.529750824        26.678298950
    31.796998978        44.059497833        29.452199936
    35.000000000        41.794647217        29.452199936
    38.202999115        39.529750824        29.452199936
    41.406051636        37.264900208        29.452199936
    44.609046936        35.000000000        29.452199936
    30.195449829        35.000000000        43.321697235
    26.992450714        44.059497833        32.226100922
    33.398502350        39.529750824        32.226100922
    36.601501465        37.264900208        32.226100922
    39.804550171        35.000000000        32.226100922
    43.007553101        32.735099792        32.226100922
    25.390949249        41.794647217        35.000000000
    28.593950272        39.529750824        35.000000000
    31.796998978        37.264900208        35.000000000
    35.000000000        35.000000000        35.000000000
    38.202999115        32.735099792        35.000000000
    30.195449829        41.794647217        32.226100922
    38.202999115        32.735099792        40.547798157
    35.000000000        35.000000000        40.547798157
    38.202999115        39.529750824        40.547798157
    41.406051636        37.264900208        40.547798157
    44.609046936        35.000000000        40.547798157
    33.398502350        39.529750824        43.321697235
    36.601501465        37.264900208        43.321697235
    39.804550171        35.000000000        43.321697235
    35.000000000        35.000000000        46.095600128
    41.406051636        44.059497833        29.452199936
    36.601501465        44.059497833        32.226100922
    39.804550171        41.794647217        32.226100922
    43.007553101        39.529750824        32.226100922
    31.796998978        44.059497833        35.000000000
    35.000000000        41.794647217        35.000000000
    38.202999115        39.529750824        35.000000000
    41.406051636        37.264900208        35.000000000
    44.609046936        35.000000000        35.000000000
    26.992450714        44.059497833        37.773899078
    30.195449829        41.794647217        37.773899078
    33.398502350        39.529750824        37.773899078
    36.601501465        37.264900208        37.773899078
    39.804550171        35.000000000        37.773899078
    43.007553101        32.735099792        37.773899078
    28.593950272        39.529750824        40.547798157
    31.796998978        37.264900208        40.547798157
    23.789449692        39.529750824        37.773899078
    26.992450714        37.264900208        37.773899078
    30.195449829        35.000000000        37.773899078
    28.593950272        32.735099792        35.000000000
    35.000000000        35.000000000        23.904399872
    30.195449829        35.000000000        26.678298950
    33.398502350        32.735099792        26.678298950
    25.390949249        35.000000000        29.452199936
    28.593950272        32.735099792        29.452199936
    25.390949249        35.000000000        35.000000000
    35.000000000        41.794647217        40.547798157
    33.398502350        32.735099792        37.773899078
    25.390949249        35.000000000        40.547798157
    28.593950272        32.735099792        40.547798157
    38.202999115        39.529750824        23.904399872
    33.398502350        39.529750824        26.678298950
    36.601501465        37.264900208        26.678298950
    39.804550171        35.000000000        26.678298950
    28.593950272        39.529750824        29.452199936
    31.796998978        37.264900208        29.452199936
    35.000000000        35.000000000        29.452199936
    38.202999115        32.735099792        29.452199936
    23.789449692        39.529750824        32.226100922
    26.992450714        37.264900208        32.226100922
    30.195449829        35.000000000        32.226100922
    33.398502350        32.735099792        32.226100922
    34.199249268        44.059497833        39.160850525
    31.796998978        44.059497833        40.547798157
    39.804550171        41.794647217        37.773899078
    30.996198654        32.735099792        44.708648682
    34.199249268        44.059497833        28.065248489
    37.402248383        41.794647217        28.065248489
    40.605297089        39.529750824        28.065248489
    43.808300018        37.264900208        28.065248489
    29.394701004        44.059497833        30.839151382
    32.597751617        41.794647217        30.839151382
    35.800746918        39.529750824        30.839151382
    39.003799438        37.264900208        30.839151382
    35.800746918        32.735099792        41.934749603
    42.206798553        35.000000000        30.839151382
    27.793199539        41.794647217        33.613048553
    30.996198654        39.529750824        33.613048553
    34.199249268        37.264900208        33.613048553
    37.402248383        35.000000000        33.613048553
    40.605297089        32.735099792        33.613048553
    26.191699982        39.529750824        36.386951447
    29.394701004        37.264900208        36.386951447
    32.597751617        35.000000000        36.386951447
    35.800746918        32.735099792        36.386951447
    45.409801483        32.735099792        30.839151382
    32.597751617        35.000000000        41.934749603
    29.394701004        37.264900208        41.934749603
    40.605297089        39.529750824        39.160850525
    43.808300018        37.264900208        39.160850525
    32.597751617        41.794647217        41.934749603
    35.800746918        39.529750824        41.934749603
    39.003799438        37.264900208        41.934749603
    42.206798553        35.000000000        41.934749603
    34.199249268        37.264900208        44.708648682
    37.402248383        35.000000000        44.708648682
    39.003799438        44.059497833        30.839151382
    42.206798553        41.794647217        30.839151382
    34.199249268        44.059497833        33.613048553
    37.402248383        41.794647217        33.613048553
    40.605297089        39.529750824        33.613048553
    43.808300018        37.264900208        33.613048553
    29.394701004        44.059497833        36.386951447
    32.597751617        41.794647217        36.386951447
    35.800746918        39.529750824        36.386951447
    39.003799438        37.264900208        36.386951447
    42.206798553        35.000000000        36.386951447
    45.409801483        32.735099792        36.386951447
    27.793199539        41.794647217        39.160850525
    30.996198654        39.529750824        39.160850525
    34.199249268        37.264900208        39.160850525
    37.402248383        35.000000000        39.160850525
    40.605297089        32.735099792        39.160850525
    24.590198517        37.264900208        39.160850525
    27.793199539        35.000000000        39.160850525
    30.996198654        32.735099792        39.160850525
    32.597751617        35.000000000        25.291349411
    35.800746918        32.735099792        25.291349411
    27.793199539        35.000000000        28.065248489
    30.996198654        32.735099792        28.065248489
    26.191699982        32.735099792        30.839151382
    41.406051636        44.059497833        40.547798157
    36.601501465        44.059497833        43.321697235
    39.804550171        41.794647217        43.321697235
    43.007553101        39.529750824        43.321697235
    38.202999115        39.529750824        46.095600128
    41.406051636        44.059497833        35.000000000
    36.601501465        44.059497833        37.773899078
    43.007553101        39.529750824        37.773899078
    26.191699982        32.735099792        36.386951447
    26.191699982        32.735099792        41.934749603
    35.800746918        39.529750824        25.291349411
    39.003799438        37.264900208        25.291349411
    30.996198654        39.529750824        28.065248489
    34.199249268        37.264900208        28.065248489
    37.402248383        35.000000000        28.065248489
    40.605297089        32.735099792        28.065248489
    26.191699982        39.529750824        30.839151382
    29.394701004        37.264900208        30.839151382
    32.597751617        35.000000000        30.839151382
    35.800746918        32.735099792        30.839151382
    24.590198517        37.264900208        33.613048553
    27.793199539        35.000000000        33.613048553
    30.996198654        32.735099792        33.613048553
    41.406051636        44.059497833        37.773899078
