LAMMPS (28 Mar 2023 - Update 1)
  using 1 OpenMP thread(s) per MPI task
# CdTe cluster
units metal
dimension 3
boundary p p p
atom_style  charge
read_data in.data
Reading data file ...
  orthogonal box = (0 0 0) to (8.4283 14.5982 49.476269)
  1 by 1 by 2 MPI processor grid
  reading atoms ...
  385 atoms
  read_data CPU = 0.004 seconds


mass 1 26.9815386
mass 2 15.9994

pair_style comb3 polar_off
pair_coeff * * /home/yuxin.chang/fantastx/examples/Al_Al2O3_lmp_ex_yuxin_edit/ffield.comb3.NiAlO Al O

neighbor 4.0 bin
neigh_modify one 2000
neigh_modify delay 0 every 10 check yes

region top_grain block INF INF INF INF 23.8 45
region bottom_grain block INF INF INF INF 1 19.1
group top region top_grain
144 atoms in group top
group bot region bottom_grain
222 atoms in group bot
group both_grains union top bot
366 atoms in group both_grains
fix ff both_grains setforce 0.0 0.0 0.0

minimize 0.0 1.0e-6 1 1
Switching to 'neigh_modify every 1 delay 0 check yes' setting during minimization
Neighbor list info ...
  update: every = 1 steps, delay = 0 steps, check = yes
  max neighbors/atom: 2000, page size: 100000
  master list distance cutoff = 15
  ghost atom cutoff = 15
  binsize = 7.5, bins = 2 2 7
  1 neighbor lists, perpetual/occasional/extra = 1 0 0
  (1) pair comb3, perpetual
      attributes: full, newton on, ghost
      pair build: full/bin/ghost
      stencil: full/ghost/bin/3d
      bin: standard
Per MPI rank memory allocation (min/avg/max) = 21.74 | 21.93 | 22.13 Mbytes
   Step          Temp          E_pair         E_mol          TotEng         Press     
         0   0             -1522.7312      0             -1522.7312      38271.583    
         1   0             -1526.2684      0             -1526.2684      33346.153    
Loop time of 0.099425 on 2 procs for 1 steps with 385 atoms

98.1% CPU use with 2 MPI tasks x 1 OpenMP threads

Minimization stats:
  Stopping criterion = max force evaluations
  Energy initial, next-to-last, final = 
     -1522.73120799387  -1522.73120799387  -1526.26843390827
  Force two-norm initial, final = 10.817427 14.508164
  Force max component initial, final = 3.6394293 6.3566296
  Final line search alpha, max atom move = 0.027476836 0.17466007
  Iterations, force evaluations = 1 1

MPI task timing breakdown:
Section |  min time  |  avg time  |  max time  |%varavg| %total
---------------------------------------------------------------
Pair    | 0.065397   | 0.082142   | 0.098887   |   5.8 | 82.62
Neigh   | 0          | 0          | 0          |   0.0 |  0.00
Comm    | 0.00028818 | 0.017029   | 0.033771   |  12.8 | 17.13
Output  | 0          | 0          | 0          |   0.0 |  0.00
Modify  | 6e-06      | 7.592e-06  | 9.184e-06  |   0.0 |  0.01
Other   |            | 0.0002461  |            |       |  0.25

Nlocal:          192.5 ave         259 max         126 min
Histogram: 1 0 0 0 0 0 0 0 0 1
Nghost:         5826.5 ave        6106 max        5547 min
Histogram: 1 0 0 0 0 0 0 0 0 1
Neighs:              0 ave           0 max           0 min
Histogram: 2 0 0 0 0 0 0 0 0 0
FullNghs:       197685 ave      297175 max       98195 min
Histogram: 1 0 0 0 0 0 0 0 0 1

Total # of neighbors = 395370
Ave neighs/atom = 1026.9351
Neighbor list builds = 0
Dangerous builds = 0

#thermo_style multi
#thermo 100

#fix 1 all box/relax aniso 0.0

#region bulk union 2 bulk1 bulk2
compute peatom all pe/atom
dump myDump all custom 1000 rlx.str id type x y z c_peatom

minimize 1.0e-6 1.0e-6 5000 10000
Switching to 'neigh_modify every 1 delay 0 check yes' setting during minimization
Per MPI rank memory allocation (min/avg/max) = 21.86 | 22.06 | 22.25 Mbytes
   Step          Temp          E_pair         E_mol          TotEng         Press     
         1   0             -1526.2684      0             -1526.2684      33346.153    
        36   0             -1548.0706      0             -1548.0706      35829.669    
Loop time of 2.76944 on 2 procs for 35 steps with 385 atoms

97.5% CPU use with 2 MPI tasks x 1 OpenMP threads

Minimization stats:
  Stopping criterion = energy tolerance
  Energy initial, next-to-last, final = 
     -1526.26843390827  -1548.06930594658  -1548.07062187529
  Force two-norm initial, final = 14.508164 0.12014193
  Force max component initial, final = 6.3566296 0.042385023
  Final line search alpha, max atom move = 0.87703702 0.037173234
  Iterations, force evaluations = 35 54

MPI task timing breakdown:
Section |  min time  |  avg time  |  max time  |%varavg| %total
---------------------------------------------------------------
Pair    | 1.8177     | 2.2872     | 2.7567     |  31.0 | 82.59
Neigh   | 0          | 0          | 0          |   0.0 |  0.00
Comm    | 0.0076614  | 0.47694    | 0.94623    |  68.0 | 17.22
Output  | 0          | 0          | 0          |   0.0 |  0.00
Modify  | 0.00017747 | 0.00020688 | 0.0002363  |   0.0 |  0.01
Other   |            | 0.00512    |            |       |  0.18

Nlocal:          192.5 ave         259 max         126 min
Histogram: 1 0 0 0 0 0 0 0 0 1
Nghost:         5826.5 ave        6106 max        5547 min
Histogram: 1 0 0 0 0 0 0 0 0 1
Neighs:              0 ave           0 max           0 min
Histogram: 2 0 0 0 0 0 0 0 0 0
FullNghs:       197653 ave      297102 max       98204 min
Histogram: 1 0 0 0 0 0 0 0 0 1

Total # of neighbors = 395306
Ave neighs/atom = 1026.7688
Neighbor list builds = 0
Dangerous builds = 0
Total wall time: 0:00:03
