Al247 O139
1.0
   8.4283000000000001    0.0000000000000000    0.0000000000000000
   0.0000000000000000   14.5982000000000003    0.0000000000000000
   0.0000000000000000    0.0000000000000000   49.4762690000000021
Al O
247 139
direct
   0.0135939631954249    0.1666671233439739    0.1172529804137010 Al
   0.0135939631954249    0.4999999999999999    0.1172529804137010 Al
   0.0135939631954249    0.8333356167198696    0.1172529804137010 Al
   0.5135934886038702    0.0000000000000000    0.1172529804137010 Al
   0.5135934886038702    0.3333328766560261    0.1172529804137010 Al
   0.5135934886038702    0.6666657533120521    0.1172529804137010 Al
   0.3469276129231280    0.1666671233439739    0.1514200676692093 Al
   0.3469276129231280    0.4999999999999999    0.1514200676692093 Al
   0.3469276129231280    0.8333356167198696    0.1514200676692093 Al
   0.8469276129231280    0.0000000000000000    0.1514200676692093 Al
   0.8469276129231280    0.3333328766560261    0.1514200676692093 Al
   0.8469276129231280    0.6666671233439738    0.1514200676692093 Al
   0.1802605507634992    0.0000000000000000    0.1613470490266758 Al
   0.1802605507634992    0.3333328766560261    0.1613470490266758 Al
   0.1802605507634992    0.6666657533120521    0.1613470490266758 Al
   0.6802605507634991    0.1666671233439739    0.1613470490266758 Al
   0.6802605507634991    0.4999999999999999    0.1613470490266758 Al
   0.6802605507634991    0.8333356167198696    0.1613470490266758 Al
   0.0135939631954249    0.1666671233439739    0.0632288986867623 Al
   0.0135939631954249    0.4999999999999999    0.0632288986867623 Al
   0.0135939631954249    0.8333356167198696    0.0632288986867623 Al
   0.5135934886038702    0.0000000000000000    0.0632288986867623 Al
   0.5135934886038702    0.3333328766560261    0.0632288986867623 Al
   0.5135934886038702    0.6666657533120521    0.0632288986867623 Al
   0.3469276129231280    0.1666671233439739    0.0731568906297280 Al
   0.3469276129231280    0.4999999999999999    0.0731568906297280 Al
   0.3469276129231280    0.8333356167198696    0.0731568906297280 Al
   0.8469276129231280    0.0000000000000000    0.0731568906297280 Al
   0.8469276129231280    0.3333328766560261    0.0731568906297280 Al
   0.8469276129231280    0.6666671233439738    0.0731568906297280 Al
   0.1802605507634992    0.0000000000000000    0.1073249884707353 Al
   0.1802605507634992    0.3333328766560261    0.1073249884707353 Al
   0.1802605507634992    0.6666657533120521    0.1073249884707353 Al
   0.6802605507634991    0.1666671233439739    0.1073249884707353 Al
   0.6802605507634991    0.4999999999999999    0.1073249884707353 Al
   0.6802605507634991    0.8333356167198696    0.1073249884707353 Al
   0.0135939631954249    0.1666671233439739    0.1955149447505833 Al
   0.0135939631954249    0.4999999999999999    0.1955149447505833 Al
   0.0135939631954249    0.8333356167198696    0.1955149447505833 Al
   0.5135934886038702    0.0000000000000000    0.1955149447505833 Al
   0.5135934886038702    0.3333328766560261    0.1955149447505833 Al
   0.5135934886038702    0.6666657533120521    0.1955149447505833 Al
   0.3469276129231280    0.1666671233439739    0.2054439472790481 Al
   0.3469276129231280    0.4999999999999999    0.2054439472790481 Al
   0.3469276129231280    0.8333356167198696    0.2054439472790481 Al
   0.8469276129231280    0.0000000000000000    0.2054439472790481 Al
   0.8469276129231280    0.3333328766560261    0.2054439472790481 Al
   0.8469276129231280    0.6666671233439738    0.2054439472790481 Al
   0.1802605507634992    0.0000000000000000    0.2396098218319575 Al
   0.1802605507634992    0.3333328766560261    0.2396098218319575 Al
   0.1802605507634992    0.6666657533120521    0.2396098218319575 Al
   0.6802605507634991    0.1666671233439739    0.2396098218319575 Al
   0.6802605507634991    0.4999999999999999    0.2396098218319575 Al
   0.6802605507634991    0.8333356167198696    0.2396098218319575 Al
   0.0135939631954249    0.1666671233439739    0.2495378137749231 Al
   0.0135939631954249    0.4999999999999999    0.2495378137749231 Al
   0.0135939631954249    0.8333356167198696    0.2495378137749231 Al
   0.5135934886038702    0.0000000000000000    0.2495378137749231 Al
   0.5135934886038702    0.3333328766560261    0.2495378137749231 Al
   0.5135934886038702    0.6666657533120521    0.2495378137749231 Al
   0.3469276129231280    0.1666671233439739    0.2837057094988306 Al
   0.3469276129231280    0.4999999999999999    0.2837057094988306 Al
   0.3469276129231280    0.8333356167198696    0.2837057094988306 Al
   0.8469276129231280    0.0000000000000000    0.2837057094988306 Al
   0.8469276129231280    0.3333328766560261    0.2837057094988306 Al
   0.8469276129231280    0.6666671233439738    0.2837057094988306 Al
   0.1802593642846126    0.0000000000000000    0.2936337014417963 Al
   0.1802593642846126    0.3333328766560261    0.2936337014417963 Al
   0.1802593642846126    0.6666657533120521    0.2936337014417963 Al
   0.6802605507634991    0.1666671233439739    0.2936337014417963 Al
   0.6802605507634991    0.4999999999999999    0.2936337014417963 Al
   0.6802605507634991    0.8333356167198696    0.2936337014417963 Al
   0.0135939631954249    0.1666671233439739    0.3278015971657038 Al
   0.0135939631954249    0.4999999999999999    0.3278015971657038 Al
   0.0135939631954249    0.8333356167198696    0.3278015971657038 Al
   0.5135934886038702    0.0000000000000000    0.3278015971657038 Al
   0.5135934886038702    0.3333328766560261    0.3278015971657038 Al
   0.5135934886038702    0.6666657533120521    0.3278015971657038 Al
   0.3469276129231280    0.1666671233439739    0.3377275679376713 Al
   0.3469276129231280    0.4999999999999999    0.3377275679376713 Al
   0.3469276129231280    0.8333356167198696    0.3377275679376713 Al
   0.8469276129231280    0.0000000000000000    0.3377275679376713 Al
   0.8469276129231280    0.3333328766560261    0.3377275679376713 Al
   0.8469276129231280    0.6666671233439738    0.3377275679376713 Al
   0.0135939631954249    0.1666671233439739    0.3741308787855446 Al
   0.0135939631954249    0.4999999999999999    0.3741308787855446 Al
   0.0135939631954249    0.8333356167198696    0.3741308787855446 Al
   0.5135934886038702    0.0000000000000000    0.3741308787855446 Al
   0.5135934886038702    0.3333328766560261    0.3741308787855446 Al
   0.5135934886038702    0.6666657533120521    0.3741308787855446 Al
   0.3469276129231280    0.1666671233439739    0.3840588707285102 Al
   0.3469276129231280    0.4999999999999999    0.3840588707285102 Al
   0.3469276129231280    0.8333356167198696    0.3840588707285102 Al
   0.8469276129231280    0.0000000000000000    0.3840588707285102 Al
   0.8469276129231280    0.3333328766560261    0.3840588707285102 Al
   0.8469276129231280    0.6666671233439738    0.3840588707285102 Al
   0.8333353107981444    0.2338240330999712    0.4815136727468274 Al
   0.1666670621596289    0.2338240330999712    0.4815136727468274 Al
   0.5000011864788866    0.5671569097559972    0.4819724785634099 Al
   0.8333353107981444    0.9004877313641407    0.4824333055509905 Al
   0.1666670621596289    0.9004877313641407    0.4824333055509905 Al
   0.5000011864788866    0.2338240330999712    0.4815136727468274 Al
   0.8333353107981444    0.5671569097559972    0.4819724785634099 Al
   0.1666670621596289    0.5671569097559972    0.4819724785634099 Al
   0.5000011864788866    0.9004877313641407    0.4824333055509905 Al
   0.6666682486385155    0.0671569782575934    0.4812812380820389 Al
   0.0000000000000000    0.0671569782575934    0.4812812380820389 Al
   0.3333341243192577    0.4004897864120233    0.4817420650696196 Al
   0.6666682486385155    0.7338233480840103    0.4822028920572002 Al
   0.0000000000000000    0.7338233480840103    0.4822028920572002 Al
   0.3333341243192577    0.0671569782575934    0.4812812380820389 Al
   0.6666682486385155    0.4004897864120233    0.4817420650696196 Al
   0.0000000000000000    0.4004897864120233    0.4817420650696196 Al
   0.3333341243192577    0.7338233480840103    0.4822028920572002 Al
   0.6368793232324431    0.4681200421969831    0.4136043483796242 Al
   0.2316422054269544    0.9314299023167240    0.4152455392301307 Al
   0.1910254737016955    0.6515864969653793    0.4004465251815977 Al
   0.0367450138224790    0.0810620487457358    0.4155608419058438 Al
   0.6626959173261512    0.1334020632680741    0.4262892175640811 Al
   0.5080205972734715    0.6438540367990574    0.4235970177945309 Al
   0.4845591637696807    0.2973832390294693    0.4274412850330327 Al
   0.8333353107981444    0.0108770259347043    0.5282411250533059 Al
   0.1666670621596289    0.0108770259347043    0.5282411250533059 Al
   0.5000011864788866    0.1212622104095025    0.5754314255183631 Al
   0.8333353107981444    0.2316477373922812    0.6226217259834205 Al
   0.1666670621596289    0.2316477373922812    0.6226217259834205 Al
   0.5000011864788866    0.3442102450987107    0.5287019520408865 Al
   0.8333353107981444    0.4545950870655285    0.5758922525059438 Al
   0.1666670621596289    0.4545950870655285    0.5758922525059438 Al
   0.5000011864788866    0.5649812990642681    0.6230805318000030 Al
   0.8333353107981444    0.6775431217547367    0.5291627790284672 Al
   0.1666670621596289    0.6775431217547367    0.5291627790284672 Al
   0.5000011864788866    0.7879259086736720    0.5763530794935244 Al
   0.8333353107981444    0.8983162307681768    0.6235413587875837 Al
   0.1666670621596289    0.8983162307681768    0.6235413587875837 Al
   0.5000011864788866    0.0108770259347043    0.5282411250533059 Al
   0.8333353107981444    0.1212622104095025    0.5754314255183631 Al
   0.1666670621596289    0.1212622104095025    0.5754314255183631 Al
   0.5000011864788866    0.2316477373922812    0.6226217259834205 Al
   0.8333353107981444    0.3442102450987107    0.5287019520408865 Al
   0.1666670621596289    0.3442102450987107    0.5287019520408865 Al
   0.5000011864788866    0.4545950870655285    0.5758922525059438 Al
   0.8333353107981444    0.5649812990642681    0.6230805318000030 Al
   0.1666670621596289    0.5649812990642681    0.6230805318000030 Al
   0.5000011864788866    0.6775431217547367    0.5291627790284672 Al
   0.8333353107981444    0.7879259086736720    0.5763530794935244 Al
   0.1666670621596289    0.7879259086736720    0.5763530794935244 Al
   0.5000011864788866    0.8983162307681768    0.6235413587875837 Al
   0.6666682486385155    0.0649819840802291    0.6223913124896302 Al
   0.0000000000000000    0.0649819840802291    0.6223913124896302 Al
   0.3333341243192577    0.1775431217547369    0.5284715385470962 Al
   0.6666682486385155    0.2879286487375156    0.5756618390121535 Al
   0.0000000000000000    0.2879286487375156    0.5756618390121535 Al
   0.3333341243192577    0.3983148607362551    0.6228521394772109 Al
   0.6666682486385155    0.5108759984107629    0.5289323655346768 Al
   0.0000000000000000    0.5108759984107629    0.5289323655346768 Al
   0.3333341243192577    0.6212622104095025    0.5761226659997342 Al
   0.6666682486385155    0.7316449973284377    0.6233129664647915 Al
   0.0000000000000000    0.7316449973284377    0.6233129664647915 Al
   0.3333341243192577    0.8442068200189063    0.5293931925222575 Al
   0.6666682486385155    0.9545971421134111    0.5765814718163167 Al
   0.0000000000000000    0.9545971421134111    0.5765814718163167 Al
   0.3333341243192577    0.0649819840802291    0.6223913124896302 Al
   0.6666682486385155    0.1775431217547369    0.5284715385470962 Al
   0.0000000000000000    0.1775431217547369    0.5284715385470962 Al
   0.3333341243192577    0.2879286487375156    0.5756618390121535 Al
   0.6666682486385155    0.3983148607362551    0.6228521394772109 Al
   0.0000000000000000    0.3983148607362551    0.6228521394772109 Al
   0.3333341243192577    0.5108759984107629    0.5289323655346768 Al
   0.6666682486385155    0.6212622104095025    0.5761226659997342 Al
   0.0000000000000000    0.6212622104095025    0.5761226659997342 Al
   0.3333341243192577    0.7316449973284377    0.6233129664647915 Al
   0.6666682486385155    0.8442068200189063    0.5293931925222575 Al
   0.0000000000000000    0.8442068200189063    0.5293931925222575 Al
   0.3333341243192577    0.9545971421134111    0.5765814718163167 Al
   0.8333353107981444    0.0065260100560343    0.8104592526974902 Al
   0.1666670621596289    0.0065260100560343    0.8104592526974902 Al
   0.8333353107981444    0.0087010042333986    0.6693511994608971 Al
   0.1666670621596289    0.0087010042333986    0.6693511994608971 Al
   0.5000011864788866    0.1190872847337343    0.7165414999259544 Al
   0.8333353107981444    0.2294728117165130    0.7637297792200135 Al
   0.1666670621596289    0.2294728117165130    0.7637297792200135 Al
   0.5000011864788866    0.3398590237152526    0.8109200796850708 Al
   0.5000011864788866    0.3420339493910208    0.6698100052774796 Al
   0.8333353107981444    0.4524201613897603    0.7170003057425369 Al
   0.1666670621596289    0.4524201613897603    0.7170003057425369 Al
   0.5000011864788866    0.5628056883725390    0.7641906062075943 Al
   0.8333353107981444    0.6731919003712785    0.8113809066726515 Al
   0.1666670621596289    0.6731919003712785    0.8113809066726515 Al
   0.8333353107981444    0.6753668260470468    0.6702728534360584 Al
   0.1666670621596289    0.6753668260470468    0.6702728534360584 Al
   0.5000011864788866    0.7857544080777080    0.7174611327301176 Al
   0.8333353107981444    0.8961378800126042    0.7646514331951748 Al
   0.1666670621596289    0.8961378800126042    0.7646514331951748 Al
   0.5000011864788866    0.0065260100560343    0.8104592526974902 Al
   0.5000011864788866    0.0087010042333986    0.6693511994608971 Al
   0.8333353107981444    0.1190872847337343    0.7165414999259544 Al
   0.1666670621596289    0.1190872847337343    0.7165414999259544 Al
   0.5000011864788866    0.2294728117165130    0.7637297792200135 Al
   0.8333353107981444    0.3398590237152526    0.8109200796850708 Al
   0.1666670621596289    0.3398590237152526    0.8109200796850708 Al
   0.8333353107981444    0.3420339493910208    0.6698100052774796 Al
   0.1666670621596289    0.3420339493910208    0.6698100052774796 Al
   0.5000011864788866    0.4524201613897603    0.7170003057425369 Al
   0.8333353107981444    0.5628056883725390    0.7641906062075943 Al
   0.1666670621596289    0.5628056883725390    0.7641906062075943 Al
   0.5000011864788866    0.6731919003712785    0.8113809066726515 Al
   0.5000011864788866    0.6753668260470468    0.6702728534360584 Al
   0.8333353107981444    0.7857544080777080    0.7174611327301176 Al
   0.1666670621596289    0.7857544080777080    0.7174611327301176 Al
   0.5000011864788866    0.8961378800126042    0.7646514331951748 Al
   0.6666682486385155    0.0628069899028647    0.7634993657262232 Al
   0.0000000000000000    0.0628069899028647    0.7634993657262232 Al
   0.3333341243192577    0.1731919003712786    0.8106916873622787 Al
   0.3333341243192577    0.1753681960789686    0.6695816129546874 Al
   0.6666682486385155    0.2857537230617473    0.7167719134197448 Al
   0.0000000000000000    0.2857537230617473    0.7167719134197448 Al
   0.3333341243192577    0.3961399350604869    0.7639601927138039 Al
   0.6666682486385155    0.5065247770273047    0.8111504931788612 Al
   0.0000000000000000    0.5065247770273047    0.8111504931788612 Al
   0.6666682486385155    0.5087010727349947    0.6700424399422682 Al
   0.0000000000000000    0.5087010727349947    0.6700424399422682 Al
   0.3333341243192577    0.6190872847337342    0.7172307192363273 Al
   0.6666682486385155    0.7294734967324737    0.7644210197013845 Al
   0.0000000000000000    0.7294734967324737    0.7644210197013845 Al
   0.3333341243192577    0.8398569686673699    0.8116113201664419 Al
   0.3333341243192577    0.8420353194229424    0.6705012457588506 Al
   0.6666682486385155    0.9524187913578386    0.7176915462239079 Al
   0.0000000000000000    0.9524187913578386    0.7176915462239079 Al
   0.3333341243192577    0.0628069899028647    0.7634993657262232 Al
   0.6666682486385155    0.1731919003712786    0.8106916873622787 Al
   0.0000000000000000    0.1731919003712786    0.8106916873622787 Al
   0.6666682486385155    0.1753681960789686    0.6695816129546874 Al
   0.0000000000000000    0.1753681960789686    0.6695816129546874 Al
   0.3333341243192577    0.2857537230617473    0.7167719134197448 Al
   0.6666682486385155    0.3961399350604869    0.7639601927138039 Al
   0.0000000000000000    0.3961399350604869    0.7639601927138039 Al
   0.3333341243192577    0.5065247770273047    0.8111504931788612 Al
   0.3333341243192577    0.5087010727349947    0.6700424399422682 Al
   0.6666682486385155    0.6190872847337342    0.7172307192363273 Al
   0.0000000000000000    0.6190872847337342    0.7172307192363273 Al
   0.3333341243192577    0.7294734967324737    0.7644210197013845 Al
   0.6666682486385155    0.8398569686673699    0.8116113201664419 Al
   0.0000000000000000    0.8398569686673699    0.8116113201664419 Al
   0.6666682486385155    0.8420353194229424    0.6705012457588506 Al
   0.0000000000000000    0.8420353194229424    0.6705012457588506 Al
   0.3333341243192577    0.9524187913578386    0.7176915462239079 Al
   0.0271869772077406    0.2823087777945226    0.1343359176901557 O
   0.0271869772077406    0.6156423394665095    0.1343359176901557 O
   0.0271869772077406    0.9489731610746530    0.1343359176901557 O
   0.5271869772077407    0.1156416544505487    0.1343359176901557 O
   0.5271869772077407    0.4489759011384965    0.1343359176901557 O
   0.5271869772077407    0.7823087777945225    0.1343359176901557 O
   0.3333341243192577    0.2823087777945226    0.1343359176901557 O
   0.3333341243192577    0.6156423394665095    0.1343359176901557 O
   0.3333341243192577    0.9489731610746530    0.1343359176901557 O
   0.8333341243192578    0.1156416544505487    0.1343359176901557 O
   0.8333341243192578    0.4489759011384965    0.1343359176901557 O
   0.8333341243192578    0.7823087777945225    0.1343359176901557 O
   0.1802605507634992    0.1020488827389678    0.1343359176901557 O
   0.1802605507634992    0.4353817593949939    0.1343359176901557 O
   0.1802605507634992    0.7687180611308242    0.1343359176901557 O
   0.6802605507634991    0.2687146360510200    0.1343359176901557 O
   0.6802605507634991    0.6020488827389678    0.1343359176901557 O
   0.6802605507634991    0.9353824444109546    0.1343359176901557 O
   0.0135939631954249    0.0646179665986217    0.0902400300232825 O
   0.0135939631954249    0.3979511172610322    0.0902400300232825 O
   0.0135939631954249    0.7312819388691756    0.0902400300232825 O
   0.5135934886038702    0.2312853639489800    0.0902400300232825 O
   0.5135934886038702    0.5646182406050060    0.0902400300232825 O
   0.5135934886038702    0.8979531723089147    0.0902400300232825 O
   0.1666670621596289    0.2176912222054774    0.0902400300232825 O
   0.1666670621596289    0.5510240988615034    0.0902400300232825 O
   0.1666670621596289    0.8843556054856078    0.0902400300232825 O
   0.6666670621596289    0.0510249893822526    0.0902400300232825 O
   0.6666670621596289    0.3843576605334904    0.0902400300232825 O
   0.6666670621596289    0.7176912222054773    0.0902400300232825 O
   0.3605211015269983    0.0510240303599074    0.0902400300232825 O
   0.3605211015269983    0.3843569755175295    0.0902400300232825 O
   0.3605211015269983    0.7176912222054773    0.0902400300232825 O
   0.8605211015269982    0.2176912222054774    0.0902400300232825 O
   0.8605211015269982    0.5510240988615034    0.0902400300232825 O
   0.8605211015269982    0.8843556054856078    0.0902400300232825 O
   0.3469276129231280    0.0646179665986217    0.1784309968886296 O
   0.3469276129231280    0.3979511172610322    0.1784309968886296 O
   0.3469276129231280    0.7312819388691756    0.1784309968886296 O
   0.8469276129231280    0.2312853639489800    0.1784309968886296 O
   0.8469276129231280    0.5646182406050060    0.1784309968886296 O
   0.8469276129231280    0.8979531723089147    0.1784309968886296 O
   0.0000000000000000    0.0510240303599074    0.1784309968886296 O
   0.0000000000000000    0.3843569755175295    0.1784309968886296 O
   0.0000000000000000    0.7176912222054773    0.1784309968886296 O
   0.5000000000000000    0.2176912222054774    0.1784309968886296 O
   0.5000000000000000    0.5510240988615034    0.1784309968886296 O
   0.5000000000000000    0.8843556054856078    0.1784309968886296 O
   0.1938540393673695    0.2176912222054774    0.1784309968886296 O
   0.1938540393673695    0.5510240988615034    0.1784309968886296 O
   0.1938540393673695    0.8843556054856078    0.1784309968886296 O
   0.6938540393673694    0.0510249893822526    0.1784309968886296 O
   0.6938540393673694    0.3843576605334904    0.1784309968886296 O
   0.6938540393673694    0.7176912222054773    0.1784309968886296 O
   0.1802605507634992    0.2312853639489800    0.2666207510513778 O
   0.1802605507634992    0.5646182406050060    0.2666207510513778 O
   0.1802605507634992    0.8979531723089147    0.2666207510513778 O
   0.6802605507634991    0.0646179665986217    0.2666207510513778 O
   0.6802605507634991    0.3979511172610322    0.2666207510513778 O
   0.6802605507634991    0.7312819388691756    0.2666207510513778 O
   0.3605211015269983    0.2823087777945226    0.2225268845555028 O
   0.3605211015269983    0.6156423394665095    0.2225268845555028 O
   0.3605211015269983    0.9489731610746530    0.2225268845555028 O
   0.8605211015269982    0.1156430244824704    0.2225268845555028 O
   0.8605211015269982    0.4489759011384965    0.2225268845555028 O
   0.8605211015269982    0.7823087777945225    0.2225268845555028 O
   0.3333341243192577    0.0510249893822526    0.2666207510513778 O
   0.3333341243192577    0.3843576605334904    0.2666207510513778 O
   0.3333341243192577    0.7176912222054773    0.2666207510513778 O
   0.8333341243192578    0.2176912222054774    0.2666207510513778 O
   0.8333341243192578    0.5510240988615034    0.2666207510513778 O
   0.8333341243192578    0.8843556054856078    0.2666207510513778 O
   0.0271869772077406    0.0510249893822526    0.2666207510513778 O
   0.0271869772077406    0.3843576605334904    0.2666207510513778 O
   0.0271869772077406    0.7176912222054773    0.2666207510513778 O
   0.5271869772077407    0.2176912222054774    0.2666207510513778 O
   0.5271869772077407    0.5510240988615034    0.2666207510513778 O
   0.5271869772077407    0.8843556054856078    0.2666207510513778 O
   0.1666670621596289    0.1156416544505487    0.2225268845555028 O
   0.1666670621596289    0.4489759011384965    0.2225268845555028 O
   0.1666670621596289    0.7823087777945225    0.2225268845555028 O
   0.6666670621596289    0.2823087777945226    0.2225268845555028 O
   0.6666670621596289    0.6156423394665095    0.2225268845555028 O
   0.6666670621596289    0.9489731610746530    0.2225268845555028 O
   0.0135939631954249    0.2687146360510200    0.2225268845555028 O
   0.0135939631954249    0.6020481977230069    0.2225268845555028 O
   0.0135939631954249    0.9353824444109546    0.2225268845555028 O
   0.5135934886038702    0.1020488827389678    0.2225268845555028 O
   0.5135934886038702    0.4353817593949939    0.2225268845555028 O
   0.5135934886038702    0.7687180611308242    0.2225268845555028 O
   0.1938540393673695    0.1156416544505487    0.3107166387182510 O
   0.1938540393673695    0.4489759011384965    0.3107166387182510 O
   0.1938540393673695    0.7823087777945225    0.3107166387182510 O
   0.6938540393673694    0.2823087777945226    0.3107166387182510 O
   0.6938540393673694    0.6156423394665095    0.3107166387182510 O
   0.6938540393673694    0.9489731610746530    0.3107166387182510 O
   0.0000000000000000    0.2823087777945226    0.3107166387182510 O
   0.0000000000000000    0.6156423394665095    0.3107166387182510 O
   0.0000000000000000    0.9489731610746530    0.3107166387182510 O
   0.5000000000000000    0.1156430244824704    0.3107166387182510 O
   0.5000000000000000    0.4489759011384965    0.3107166387182510 O
   0.5000000000000000    0.7823087777945225    0.3107166387182510 O
   0.3469276129231280    0.2687146360510200    0.3107166387182510 O
   0.3469276129231280    0.6020481977230069    0.3107166387182510 O
   0.3469276129231280    0.9353824444109546    0.3107166387182510 O
   0.8469276129231280    0.1020488827389678    0.3107166387182510 O
   0.8469276129231280    0.4353817593949939    0.3107166387182510 O
   0.8469276129231280    0.7687180611308242    0.3107166387182510 O
   0.0135939631954249    0.0646179665986217    0.3548125263851242 O
   0.0135939631954249    0.3979511172610322    0.3548125263851242 O
   0.0135939631954249    0.7312819388691756    0.3548125263851242 O
   0.5135934886038702    0.2312853639489800    0.3548125263851242 O
   0.5135934886038702    0.5646182406050060    0.3548125263851242 O
   0.5135934886038702    0.8979531723089147    0.3548125263851242 O
   0.1666670621596289    0.2176912222054774    0.3548125263851242 O
   0.1666670621596289    0.5510247838774642    0.3548125263851242 O
   0.1666670621596289    0.8843556054856078    0.3548125263851242 O
   0.6666670621596289    0.0510249893822526    0.3548125263851242 O
   0.6666670621596289    0.3843576605334904    0.3548125263851242 O
   0.6666670621596289    0.7176912222054773    0.3548125263851242 O
   0.3605211015269983    0.0510249893822526    0.3548125263851242 O
   0.3605211015269983    0.3843576605334904    0.3548125263851242 O
   0.3605211015269983    0.7176912222054773    0.3548125263851242 O
   0.8605211015269982    0.2176912222054774    0.3548125263851242 O
   0.8605211015269982    0.5510247838774642    0.3548125263851242 O
   0.8605211015269982    0.8843556054856078    0.3548125263851242 O
   0.6681738903456212    0.5894425340110423    0.3930065947373680 O
   0.8326483395227982    0.7417763833897328    0.4342263560738583 O
   0.1639274824104505    0.4200483621268375    0.3943526946221430 O
   0.8314571147206435    0.1181789535696182    0.3984374812094259 O
   0.2531613729933676    0.0665456700141113    0.4184693069721971 O
   0.0596668367286404    0.1996862626899207    0.4406718703869931 O
   0.9035143504621336    0.8134290528969323    0.4323284765065855 O
   0.3296133265308544    0.2883184228192516    0.3959292080007084 O
   0.1383790325451159    0.4180488005370525    0.4198012586599850 O
   0.6701636154384633    0.9355399980819552    0.3934047654240057 O
   0.0486329390268500    0.9623561808990150    0.3941647257193140 O
   0.1680243940059087    0.7829595429573508    0.3977765582930273 O
   0.8362504894225407    0.4542381937499143    0.3937119834157260 O
