LAMMPS (28 Mar 2023 - Update 1)
  using 1 OpenMP thread(s) per MPI task
# CdTe cluster
units metal
dimension 3
boundary p p p
atom_style  charge
read_data in.data
Reading data file ...
  orthogonal box = (0 0 0) to (8.4283 14.5982 49.476269)
  1 by 1 by 2 MPI processor grid
  reading atoms ...
  387 atoms
  read_data CPU = 0.005 seconds


mass 1 26.9815386
mass 2 15.9994

pair_style comb3 polar_off
pair_coeff * * /home/yuxin.chang/fantastx/examples/Al_Al2O3_lmp_ex_yuxin_edit/ffield.comb3.NiAlO Al O

neighbor 4.0 bin
neigh_modify one 2000
neigh_modify delay 0 every 10 check yes

region top_grain block INF INF INF INF 23.8 45
region bottom_grain block INF INF INF INF 1 19.1
group top region top_grain
144 atoms in group top
group bot region bottom_grain
222 atoms in group bot
group both_grains union top bot
366 atoms in group both_grains
fix ff both_grains setforce 0.0 0.0 0.0

minimize 0.0 1.0e-6 1 1
Switching to 'neigh_modify every 1 delay 0 check yes' setting during minimization
Neighbor list info ...
  update: every = 1 steps, delay = 0 steps, check = yes
  max neighbors/atom: 2000, page size: 100000
  master list distance cutoff = 15
  ghost atom cutoff = 15
  binsize = 7.5, bins = 2 2 7
  1 neighbor lists, perpetual/occasional/extra = 1 0 0
  (1) pair comb3, perpetual
      attributes: full, newton on, ghost
      pair build: full/bin/ghost
      stencil: full/ghost/bin/3d
      bin: standard
Per MPI rank memory allocation (min/avg/max) = 21.74 | 22.13 | 22.51 Mbytes
   Step          Temp          E_pair         E_mol          TotEng         Press     
         0   0             -1525.8989      0             -1525.8989      33981.582    
         1   0             -1534.0803      0             -1534.0803      39692.714    
Loop time of 0.103186 on 2 procs for 1 steps with 387 atoms

96.1% CPU use with 2 MPI tasks x 1 OpenMP threads

Minimization stats:
  Stopping criterion = max force evaluations
  Energy initial, next-to-last, final = 
      -1525.8989441074   -1525.8989441074  -1534.08032681137
  Force two-norm initial, final = 35.060135 18.582602
  Force max component initial, final = 10.752404 6.0399254
  Final line search alpha, max atom move = 0.0093002456 0.05617279
  Iterations, force evaluations = 1 1

MPI task timing breakdown:
Section |  min time  |  avg time  |  max time  |%varavg| %total
---------------------------------------------------------------
Pair    | 0.065853   | 0.084279   | 0.1027     |   6.3 | 81.68
Neigh   | 0          | 0          | 0          |   0.0 |  0.00
Comm    | 0.00026888 | 0.018687   | 0.037104   |  13.5 | 18.11
Output  | 0          | 0          | 0          |   0.0 |  0.00
Modify  | 6.83e-06   | 7.931e-06  | 9.032e-06  |   0.0 |  0.01
Other   |            | 0.0002128  |            |       |  0.21

Nlocal:          193.5 ave         261 max         126 min
Histogram: 1 0 0 0 0 0 0 0 0 1
Nghost:         5838.5 ave        6119 max        5558 min
Histogram: 1 0 0 0 0 0 0 0 0 1
Neighs:              0 ave           0 max           0 min
Histogram: 2 0 0 0 0 0 0 0 0 0
FullNghs:       199904 ave      301460 max       98348 min
Histogram: 1 0 0 0 0 0 0 0 0 1

Total # of neighbors = 399808
Ave neighs/atom = 1033.0956
Neighbor list builds = 0
Dangerous builds = 0

#thermo_style multi
#thermo 100

#fix 1 all box/relax aniso 0.0

#region bulk union 2 bulk1 bulk2
compute peatom all pe/atom
dump myDump all custom 1000 rlx.str id type x y z c_peatom

minimize 1.0e-6 1.0e-6 5000 10000
Switching to 'neigh_modify every 1 delay 0 check yes' setting during minimization
Per MPI rank memory allocation (min/avg/max) = 21.86 | 22.25 | 22.64 Mbytes
   Step          Temp          E_pair         E_mol          TotEng         Press     
         1   0             -1534.0803      0             -1534.0803      39692.714    
        34   0             -1607.0473      0             -1607.0473      44464.228    
Loop time of 2.17127 on 2 procs for 33 steps with 387 atoms

97.6% CPU use with 2 MPI tasks x 1 OpenMP threads

Minimization stats:
  Stopping criterion = energy tolerance
  Energy initial, next-to-last, final = 
     -1534.08032681137  -1607.04579996666  -1607.04725357337
  Force two-norm initial, final = 18.582602 0.22543099
  Force max component initial, final = 6.0399254 0.12019864
  Final line search alpha, max atom move = 0.54221295 0.065173259
  Iterations, force evaluations = 33 42

MPI task timing breakdown:
Section |  min time  |  avg time  |  max time  |%varavg| %total
---------------------------------------------------------------
Pair    | 1.4238     | 1.7921     | 2.1605     |  27.5 | 82.54
Neigh   | 0          | 0          | 0          |   0.0 |  0.00
Comm    | 0.005875   | 0.37404    | 0.74221    |  60.2 | 17.23
Output  | 0          | 0          | 0          |   0.0 |  0.00
Modify  | 0.00015795 | 0.0001676  | 0.00017724 |   0.0 |  0.01
Other   |            | 0.004913   |            |       |  0.23

Nlocal:          193.5 ave         261 max         126 min
Histogram: 1 0 0 0 0 0 0 0 0 1
Nghost:         5838.5 ave        6119 max        5558 min
Histogram: 1 0 0 0 0 0 0 0 0 1
Neighs:              0 ave           0 max           0 min
Histogram: 2 0 0 0 0 0 0 0 0 0
FullNghs:       199976 ave      301635 max       98317 min
Histogram: 1 0 0 0 0 0 0 0 0 1

Total # of neighbors = 399952
Ave neighs/atom = 1033.4677
Neighbor list builds = 0
Dangerous builds = 0
Total wall time: 0:00:02
