Al248 O141
1.0
   8.4283000000000001    0.0000000000000000    0.0000000000000000
   0.0000000000000000   14.5982000000000003    0.0000000000000000
   0.0000000000000000    0.0000000000000000   49.4762690000000021
Al O Al O
246 131 2 10
Selective dynamics
direct
   0.0135940000000000    0.1666670000000000    0.1172530000000000 F F F Al
   0.0135940000000000    0.5000000000000000    0.1172530000000000 F F F Al
   0.0135940000000000    0.8333330000000000    0.1172530000000000 F F F Al
   0.5135940000000000    0.0000000000000000    0.1172530000000000 F F F Al
   0.5135940000000000    0.3333330000000000    0.1172530000000000 F F F Al
   0.5135940000000000    0.6666660000000000    0.1172530000000000 F F F Al
   0.3469270000000000    0.1666670000000000    0.1514200000000000 F F F Al
   0.3469270000000000    0.5000000000000000    0.1514200000000000 F F F Al
   0.3469270000000000    0.8333330000000000    0.1514200000000000 F F F Al
   0.8469270000000000    0.0000000000000000    0.1514200000000000 F F F Al
   0.8469270000000000    0.3333330000000000    0.1514200000000000 F F F Al
   0.8469270000000000    0.6666670000000000    0.1514200000000000 F F F Al
   0.1802610000000000    0.0000000000000000    0.1613470000000000 F F F Al
   0.1802610000000000    0.3333330000000000    0.1613470000000000 F F F Al
   0.1802610000000000    0.6666660000000000    0.1613470000000000 F F F Al
   0.6802610000000000    0.1666670000000000    0.1613470000000000 F F F Al
   0.6802610000000000    0.5000000000000000    0.1613470000000000 F F F Al
   0.6802610000000000    0.8333330000000000    0.1613470000000000 F F F Al
   0.0135940000000000    0.1666670000000000    0.1955150000000000 F F F Al
   0.0135940000000000    0.5000000000000000    0.1955150000000000 F F F Al
   0.0135940000000000    0.8333330000000000    0.1955150000000000 F F F Al
   0.5135940000000000    0.0000000000000000    0.1955150000000000 F F F Al
   0.5135940000000000    0.3333330000000000    0.1955150000000000 F F F Al
   0.5135940000000000    0.6666660000000000    0.1955150000000000 F F F Al
   0.3469270000000000    0.1666670000000000    0.2054430000000000 F F F Al
   0.3469270000000000    0.5000000000000000    0.2054430000000000 F F F Al
   0.3469270000000000    0.8333330000000000    0.2054430000000000 F F F Al
   0.8469270000000000    0.0000000000000000    0.2054430000000000 F F F Al
   0.8469270000000000    0.3333330000000000    0.2054430000000000 F F F Al
   0.8469270000000000    0.6666670000000000    0.2054430000000000 F F F Al
   0.1802610000000000    0.0000000000000000    0.2396100000000000 F F F Al
   0.1802610000000000    0.3333330000000000    0.2396100000000000 F F F Al
   0.1802610000000000    0.6666660000000000    0.2396100000000000 F F F Al
   0.6802610000000000    0.1666670000000000    0.2396100000000000 F F F Al
   0.6802610000000000    0.5000000000000000    0.2396100000000000 F F F Al
   0.6802610000000000    0.8333330000000000    0.2396100000000000 F F F Al
   0.0135940000000000    0.1666670000000000    0.2495380000000000 F F F Al
   0.0135940000000000    0.5000000000000000    0.2495380000000000 F F F Al
   0.0135940000000000    0.8333330000000000    0.2495380000000000 F F F Al
   0.5135940000000000    0.0000000000000000    0.2495380000000000 F F F Al
   0.5135940000000000    0.3333330000000000    0.2495380000000000 F F F Al
   0.5135940000000000    0.6666660000000000    0.2495380000000000 F F F Al
   0.3469270000000000    0.1666670000000000    0.2837060000000000 F F F Al
   0.3469270000000000    0.5000000000000000    0.2837060000000000 F F F Al
   0.3469270000000000    0.8333330000000000    0.2837060000000000 F F F Al
   0.8469270000000000    0.0000000000000000    0.2837060000000000 F F F Al
   0.8469270000000000    0.3333330000000000    0.2837060000000000 F F F Al
   0.8469270000000000    0.6666670000000000    0.2837060000000000 F F F Al
   0.1802600000000000    0.0000000000000000    0.2936340000000000 F F F Al
   0.1802600000000000    0.3333330000000000    0.2936340000000000 F F F Al
   0.1802600000000000    0.6666660000000000    0.2936340000000000 F F F Al
   0.6802610000000000    0.1666670000000000    0.2936340000000000 F F F Al
   0.6802610000000000    0.5000000000000000    0.2936340000000000 F F F Al
   0.6802610000000000    0.8333330000000000    0.2936340000000000 F F F Al
   0.0135940000000000    0.1666670000000000    0.0632290000000000 F F F Al
   0.0135940000000000    0.1666670000000000    0.3278010000000000 F F F Al
   0.0135940000000000    0.5000000000000000    0.0632290000000000 F F F Al
   0.0135940000000000    0.5000000000000000    0.3278010000000000 F F F Al
   0.0135940000000000    0.8333330000000000    0.0632290000000000 F F F Al
   0.0135940000000000    0.8333330000000000    0.3278010000000000 F F F Al
   0.5135940000000000    0.0000000000000000    0.0632290000000000 F F F Al
   0.5135940000000000    0.0000000000000000    0.3278010000000000 F F F Al
   0.5135940000000000    0.3333330000000000    0.0632290000000000 F F F Al
   0.5135940000000000    0.3333330000000000    0.3278010000000000 F F F Al
   0.5135940000000000    0.6666660000000000    0.0632290000000000 F F F Al
   0.5135940000000000    0.6666660000000000    0.3278010000000000 F F F Al
   0.3469270000000000    0.1666670000000000    0.0731570000000000 F F F Al
   0.3469270000000000    0.1666670000000000    0.3377280000000000 F F F Al
   0.3469270000000000    0.5000000000000000    0.0731570000000000 F F F Al
   0.3469270000000000    0.5000000000000000    0.3377280000000000 F F F Al
   0.3469270000000000    0.8333330000000000    0.0731570000000000 F F F Al
   0.3469270000000000    0.8333330000000000    0.3377280000000000 F F F Al
   0.8469270000000000    0.0000000000000000    0.0731570000000000 F F F Al
   0.8469270000000000    0.0000000000000000    0.3377280000000000 F F F Al
   0.8469270000000000    0.3333330000000000    0.0731570000000000 F F F Al
   0.8469270000000000    0.3333330000000000    0.3377280000000000 F F F Al
   0.8469270000000000    0.6666670000000000    0.0731570000000000 F F F Al
   0.8469270000000000    0.6666670000000000    0.3377280000000000 F F F Al
   0.1802610000000000    0.0000000000000000    0.1073250000000000 F F F Al
   0.1802610000000000    0.3333330000000000    0.1073250000000000 F F F Al
   0.1802610000000000    0.6666660000000000    0.1073250000000000 F F F Al
   0.6802610000000000    0.1666670000000000    0.1073250000000000 F F F Al
   0.6802610000000000    0.5000000000000000    0.1073250000000000 F F F Al
   0.6802610000000000    0.8333330000000000    0.1073250000000000 F F F Al
   0.0135940000000000    0.1666670000000000    0.3741310000000000 F F F Al
   0.0135940000000000    0.5000000000000000    0.3741310000000000 F F F Al
   0.0135940000000000    0.8333330000000000    0.3741310000000000 F F F Al
   0.5135940000000000    0.0000000000000000    0.3741310000000000 F F F Al
   0.5135940000000000    0.3333330000000000    0.3741310000000000 F F F Al
   0.5135940000000000    0.6666660000000000    0.3741310000000000 F F F Al
   0.3469270000000000    0.1666670000000000    0.3840590000000000 F F F Al
   0.3469270000000000    0.5000000000000000    0.3840590000000000 F F F Al
   0.3469270000000000    0.8333330000000000    0.3840590000000000 F F F Al
   0.8469270000000000    0.0000000000000000    0.3840590000000000 F F F Al
   0.8469270000000000    0.3333330000000000    0.3840590000000000 F F F Al
   0.8469270000000000    0.6666670000000000    0.3840590000000000 F F F Al
   0.8333350000000000    0.0065260000000000    0.8104600000000000 F F F Al
   0.1666670000000000    0.0065260000000000    0.8104600000000000 F F F Al
   0.8333350000000000    0.0087010000000000    0.6693510000000000 F F F Al
   0.1666670000000000    0.0087010000000000    0.6693510000000000 F F F Al
   0.5000010000000000    0.1190870000000000    0.7165410000000000 F F F Al
   0.8333350000000000    0.2294730000000000    0.7637300000000000 F F F Al
   0.1666670000000000    0.2294730000000000    0.7637300000000000 F F F Al
   0.5000010000000000    0.3398590000000000    0.8109200000000000 F F F Al
   0.8333350000000000    0.0108770000000000    0.5282410000000000 F F F Al
   0.1666670000000000    0.0108770000000000    0.5282410000000000 F F F Al
   0.5000010000000000    0.1212620000000000    0.5754320000000001 F F F Al
   0.8333350000000000    0.2316480000000000    0.6226210000000000 F F F Al
   0.1666670000000000    0.2316480000000000    0.6226210000000000 F F F Al
   0.5000010000000000    0.3420340000000000    0.6698110000000000 F F F Al
   0.8333350000000000    0.4524200000000000    0.7170010000000000 F F F Al
   0.1666670000000000    0.4524200000000000    0.7170010000000000 F F F Al
   0.5000010000000000    0.5628060000000000    0.7641910000000000 F F F Al
   0.8333350000000000    0.6731920000000000    0.8113810000000000 F F F Al
   0.1666670000000000    0.6731920000000000    0.8113810000000000 F F F Al
   0.8333350000000000    0.2338240000000000    0.4815130000000000 F F F Al
   0.1666670000000000    0.2338240000000000    0.4815130000000000 F F F Al
   0.5000010000000000    0.3442100000000000    0.5287020000000000 F F F Al
   0.8333350000000000    0.4545950000000000    0.5758920000000000 F F F Al
   0.1666670000000000    0.4545950000000000    0.5758920000000000 F F F Al
   0.5000010000000000    0.5649810000000000    0.6230810000000000 F F F Al
   0.8333350000000000    0.6753670000000001    0.6702720000000000 F F F Al
   0.1666670000000000    0.6753670000000001    0.6702720000000000 F F F Al
   0.5000010000000000    0.7857530000000000    0.7174620000000000 F F F Al
   0.8333350000000000    0.8961390000000000    0.7646510000000000 F F F Al
   0.1666670000000000    0.8961390000000000    0.7646510000000000 F F F Al
   0.5000010000000000    0.5671570000000000    0.4819730000000000 F F F Al
   0.8333350000000000    0.6775430000000000    0.5291620000000000 F F F Al
   0.1666670000000000    0.6775430000000000    0.5291620000000000 F F F Al
   0.5000010000000000    0.7879280000000000    0.5763530000000000 F F F Al
   0.8333350000000000    0.8983139999999999    0.6235420000000000 F F F Al
   0.1666670000000000    0.8983139999999999    0.6235420000000000 F F F Al
   0.8333350000000000    0.9004900000000000    0.4824330000000000 F F F Al
   0.1666670000000000    0.9004900000000000    0.4824330000000000 F F F Al
   0.5000010000000000    0.0065260000000000    0.8104600000000000 F F F Al
   0.5000010000000000    0.0087010000000000    0.6693510000000000 F F F Al
   0.8333350000000000    0.1190870000000000    0.7165410000000000 F F F Al
   0.1666670000000000    0.1190870000000000    0.7165410000000000 F F F Al
   0.5000010000000000    0.2294730000000000    0.7637300000000000 F F F Al
   0.8333350000000000    0.3398590000000000    0.8109200000000000 F F F Al
   0.1666670000000000    0.3398590000000000    0.8109200000000000 F F F Al
   0.5000010000000000    0.0108770000000000    0.5282410000000000 F F F Al
   0.8333350000000000    0.1212620000000000    0.5754320000000001 F F F Al
   0.1666670000000000    0.1212620000000000    0.5754320000000001 F F F Al
   0.5000010000000000    0.2316480000000000    0.6226210000000000 F F F Al
   0.8333350000000000    0.3420340000000000    0.6698110000000000 F F F Al
   0.1666670000000000    0.3420340000000000    0.6698110000000000 F F F Al
   0.5000010000000000    0.4524200000000000    0.7170010000000000 F F F Al
   0.8333350000000000    0.5628060000000000    0.7641910000000000 F F F Al
   0.1666670000000000    0.5628060000000000    0.7641910000000000 F F F Al
   0.5000010000000000    0.6731920000000000    0.8113810000000000 F F F Al
   0.5000010000000000    0.2338240000000000    0.4815130000000000 F F F Al
   0.8333350000000000    0.3442100000000000    0.5287020000000000 F F F Al
   0.1666670000000000    0.3442100000000000    0.5287020000000000 F F F Al
   0.5000010000000000    0.4545950000000000    0.5758920000000000 F F F Al
   0.8333350000000000    0.5649810000000000    0.6230810000000000 F F F Al
   0.1666670000000000    0.5649810000000000    0.6230810000000000 F F F Al
   0.5000010000000000    0.6753670000000001    0.6702720000000000 F F F Al
   0.8333350000000000    0.7857530000000000    0.7174620000000000 F F F Al
   0.1666670000000000    0.7857530000000000    0.7174620000000000 F F F Al
   0.5000010000000000    0.8961390000000000    0.7646510000000000 F F F Al
   0.8333350000000000    0.5671570000000000    0.4819730000000000 F F F Al
   0.1666670000000000    0.5671570000000000    0.4819730000000000 F F F Al
   0.5000010000000000    0.6775430000000000    0.5291620000000000 F F F Al
   0.8333350000000000    0.7879280000000000    0.5763530000000000 F F F Al
   0.1666670000000000    0.7879280000000000    0.5763530000000000 F F F Al
   0.5000010000000000    0.8983139999999999    0.6235420000000000 F F F Al
   0.5000010000000000    0.9004900000000000    0.4824330000000000 F F F Al
   0.6666680000000000    0.0628070000000000    0.7635000000000000 F F F Al
   0.0000000000000000    0.0628070000000000    0.7635000000000000 F F F Al
   0.3333340000000000    0.1731920000000000    0.8106910000000001 F F F Al
   0.6666680000000000    0.0649820000000000    0.6223910000000000 F F F Al
   0.0000000000000000    0.0649820000000000    0.6223910000000000 F F F Al
   0.3333340000000000    0.1753680000000000    0.6695810000000000 F F F Al
   0.6666680000000000    0.2857540000000000    0.7167710000000000 F F F Al
   0.0000000000000000    0.2857540000000000    0.7167710000000000 F F F Al
   0.3333340000000000    0.3961400000000000    0.7639610000000000 F F F Al
   0.6666680000000000    0.5065250000000000    0.8111510000000000 F F F Al
   0.0000000000000000    0.5065250000000000    0.8111510000000000 F F F Al
   0.6666680000000000    0.0671570000000000    0.4812820000000000 F F F Al
   0.0000000000000000    0.0671570000000000    0.4812820000000000 F F F Al
   0.3333340000000000    0.1775430000000000    0.5284720000000001 F F F Al
   0.6666680000000000    0.2879290000000000    0.5756610000000000 F F F Al
   0.0000000000000000    0.2879290000000000    0.5756610000000000 F F F Al
   0.3333340000000000    0.3983150000000000    0.6228520000000000 F F F Al
   0.6666680000000000    0.5087010000000000    0.6700420000000000 F F F Al
   0.0000000000000000    0.5087010000000000    0.6700420000000000 F F F Al
   0.3333340000000000    0.6190870000000001    0.7172310000000000 F F F Al
   0.6666680000000000    0.7294730000000000    0.7644210000000000 F F F Al
   0.0000000000000000    0.7294730000000000    0.7644210000000000 F F F Al
   0.3333340000000000    0.8398590000000000    0.8116120000000000 F F F Al
   0.3333340000000000    0.4004900000000000    0.4817420000000000 F F F Al
   0.6666680000000000    0.5108760000000000    0.5289330000000000 F F F Al
   0.0000000000000000    0.5108760000000000    0.5289330000000000 F F F Al
   0.3333340000000000    0.6212620000000000    0.5761220000000000 F F F Al
   0.6666680000000000    0.7316480000000000    0.6233120000000000 F F F Al
   0.0000000000000000    0.7316480000000000    0.6233120000000000 F F F Al
   0.3333340000000000    0.8420339999999999    0.6705020000000000 F F F Al
   0.6666680000000000    0.9524200000000000    0.7176920000000000 F F F Al
   0.0000000000000000    0.9524200000000000    0.7176920000000000 F F F Al
   0.6666680000000000    0.7338230000000000    0.4822030000000000 F F F Al
   0.0000000000000000    0.7338230000000000    0.4822030000000000 F F F Al
   0.3333340000000000    0.8442090000000000    0.5293930000000000 F F F Al
   0.6666680000000000    0.9545950000000000    0.5765820000000000 F F F Al
   0.0000000000000000    0.9545950000000000    0.5765820000000000 F F F Al
   0.3333340000000000    0.0628070000000000    0.7635000000000000 F F F Al
   0.6666680000000000    0.1731920000000000    0.8106910000000001 F F F Al
   0.0000000000000000    0.1731920000000000    0.8106910000000001 F F F Al
   0.3333340000000000    0.0649820000000000    0.6223910000000000 F F F Al
   0.6666680000000000    0.1753680000000000    0.6695810000000000 F F F Al
   0.0000000000000000    0.1753680000000000    0.6695810000000000 F F F Al
   0.3333340000000000    0.2857540000000000    0.7167710000000000 F F F Al
   0.6666680000000000    0.3961400000000000    0.7639610000000000 F F F Al
   0.0000000000000000    0.3961400000000000    0.7639610000000000 F F F Al
   0.3333340000000000    0.5065250000000000    0.8111510000000000 F F F Al
   0.3333340000000000    0.0671570000000000    0.4812820000000000 F F F Al
   0.6666680000000000    0.1775430000000000    0.5284720000000001 F F F Al
   0.0000000000000000    0.1775430000000000    0.5284720000000001 F F F Al
   0.3333340000000000    0.2879290000000000    0.5756610000000000 F F F Al
   0.6666680000000000    0.3983150000000000    0.6228520000000000 F F F Al
   0.0000000000000000    0.3983150000000000    0.6228520000000000 F F F Al
   0.3333340000000000    0.5087010000000000    0.6700420000000000 F F F Al
   0.6666680000000000    0.6190870000000001    0.7172310000000000 F F F Al
   0.0000000000000000    0.6190870000000001    0.7172310000000000 F F F Al
   0.3333340000000000    0.7294730000000000    0.7644210000000000 F F F Al
   0.6666680000000000    0.8398590000000000    0.8116120000000000 F F F Al
   0.0000000000000000    0.8398590000000000    0.8116120000000000 F F F Al
   0.6666680000000000    0.4004900000000000    0.4817420000000000 F F F Al
   0.0000000000000000    0.4004900000000000    0.4817420000000000 F F F Al
   0.3333340000000000    0.5108760000000000    0.5289330000000000 F F F Al
   0.6666680000000000    0.6212620000000000    0.5761220000000000 F F F Al
   0.0000000000000000    0.6212620000000000    0.5761220000000000 F F F Al
   0.3333340000000000    0.7316480000000000    0.6233120000000000 F F F Al
   0.6666680000000000    0.8420339999999999    0.6705020000000000 F F F Al
   0.0000000000000000    0.8420339999999999    0.6705020000000000 F F F Al
   0.3333340000000000    0.9524200000000000    0.7176920000000000 F F F Al
   0.3333340000000000    0.7338230000000000    0.4822030000000000 F F F Al
   0.6666680000000000    0.8442090000000000    0.5293930000000000 F F F Al
   0.0000000000000000    0.8442090000000000    0.5293930000000000 F F F Al
   0.3333340000000000    0.9545950000000000    0.5765820000000000 F F F Al
   0.1835839553052505    0.6742341798124141    0.4225340769247483 F F F Al
   0.1725064230626120    0.3384331963094162    0.4248183205162776 F F F Al
   0.7249862979710379    0.5200061031705341    0.4272476422330939 F F F Al
   0.4039830096223437    0.2050608979189215    0.4276225313851520 F F F Al
   0.8544393316162746    0.3409116864991176    0.4289589314784253 F F F Al
   0.6793856055720469    0.9037778867242989    0.4312484567282559 F F F Al
   0.3469270000000000    0.0646180000000000    0.1784310000000000 F F F O
   0.3469270000000000    0.3979510000000000    0.1784310000000000 F F F O
   0.3469270000000000    0.7312840000000000    0.1784310000000000 F F F O
   0.8469270000000000    0.2312850000000000    0.1784310000000000 F F F O
   0.8469270000000000    0.5646180000000000    0.1784310000000000 F F F O
   0.8469270000000000    0.8979510000000001    0.1784310000000000 F F F O
   0.0271870000000000    0.2823090000000000    0.1343360000000000 F F F O
   0.0271870000000000    0.6156420000000000    0.1343360000000000 F F F O
   0.0271870000000000    0.9489750000000000    0.1343360000000000 F F F O
   0.5271870000000000    0.1156420000000000    0.1343360000000000 F F F O
   0.5271870000000000    0.4489760000000000    0.1343360000000000 F F F O
   0.5271870000000000    0.7823090000000000    0.1343360000000000 F F F O
   0.0000000000000000    0.0510240000000000    0.1784310000000000 F F F O
   0.0000000000000000    0.3843570000000000    0.1784310000000000 F F F O
   0.0000000000000000    0.7176910000000000    0.1784310000000000 F F F O
   0.5000000000000000    0.2176910000000000    0.1784310000000000 F F F O
   0.5000000000000000    0.5510240000000000    0.1784310000000000 F F F O
   0.5000000000000000    0.8843569999999999    0.1784310000000000 F F F O
   0.1938540000000000    0.2176910000000000    0.1784310000000000 F F F O
   0.1938540000000000    0.5510240000000000    0.1784310000000000 F F F O
   0.1938540000000000    0.8843569999999999    0.1784310000000000 F F F O
   0.6938540000000000    0.0510250000000000    0.1784310000000000 F F F O
   0.6938540000000000    0.3843580000000000    0.1784310000000000 F F F O
   0.6938540000000000    0.7176910000000000    0.1784310000000000 F F F O
   0.3333340000000000    0.2823090000000000    0.1343360000000000 F F F O
   0.3333340000000000    0.6156420000000000    0.1343360000000000 F F F O
   0.3333340000000000    0.9489750000000000    0.1343360000000000 F F F O
   0.8333340000000000    0.1156420000000000    0.1343360000000000 F F F O
   0.8333340000000000    0.4489760000000000    0.1343360000000000 F F F O
   0.8333340000000000    0.7823090000000000    0.1343360000000000 F F F O
   0.1802610000000000    0.1020490000000000    0.1343360000000000 F F F O
   0.1802610000000000    0.4353820000000000    0.1343360000000000 F F F O
   0.1802610000000000    0.7687150000000000    0.1343360000000000 F F F O
   0.6802610000000000    0.2687150000000000    0.1343360000000000 F F F O
   0.6802610000000000    0.6020489999999999    0.1343360000000000 F F F O
   0.6802610000000000    0.9353820000000000    0.1343360000000000 F F F O
   0.1802610000000000    0.2312850000000000    0.2666210000000000 F F F O
   0.1802610000000000    0.5646180000000000    0.2666210000000000 F F F O
   0.1802610000000000    0.8979510000000001    0.2666210000000000 F F F O
   0.6802610000000000    0.0646180000000000    0.2666210000000000 F F F O
   0.6802610000000000    0.3979510000000000    0.2666210000000000 F F F O
   0.6802610000000000    0.7312840000000000    0.2666210000000000 F F F O
   0.3605210000000000    0.2823090000000000    0.2225260000000000 F F F O
   0.3605210000000000    0.6156420000000000    0.2225260000000000 F F F O
   0.3605210000000000    0.9489750000000000    0.2225260000000000 F F F O
   0.8605210000000000    0.1156430000000000    0.2225260000000000 F F F O
   0.8605210000000000    0.4489760000000000    0.2225260000000000 F F F O
   0.8605210000000000    0.7823090000000000    0.2225260000000000 F F F O
   0.3333340000000000    0.0510250000000000    0.2666210000000000 F F F O
   0.3333340000000000    0.3843580000000000    0.2666210000000000 F F F O
   0.3333340000000000    0.7176910000000000    0.2666210000000000 F F F O
   0.8333340000000000    0.2176910000000000    0.2666210000000000 F F F O
   0.8333340000000000    0.5510240000000000    0.2666210000000000 F F F O
   0.8333340000000000    0.8843569999999999    0.2666210000000000 F F F O
   0.0271870000000000    0.0510250000000000    0.2666210000000000 F F F O
   0.0271870000000000    0.3843580000000000    0.2666210000000000 F F F O
   0.0271870000000000    0.7176910000000000    0.2666210000000000 F F F O
   0.5271870000000000    0.2176910000000000    0.2666210000000000 F F F O
   0.5271870000000000    0.5510240000000000    0.2666210000000000 F F F O
   0.5271870000000000    0.8843569999999999    0.2666210000000000 F F F O
   0.1666670000000000    0.1156420000000000    0.2225260000000000 F F F O
   0.1666670000000000    0.4489760000000000    0.2225260000000000 F F F O
   0.1666670000000000    0.7823090000000000    0.2225260000000000 F F F O
   0.6666670000000000    0.2823090000000000    0.2225260000000000 F F F O
   0.6666670000000000    0.6156420000000000    0.2225260000000000 F F F O
   0.6666670000000000    0.9489750000000000    0.2225260000000000 F F F O
   0.0135940000000000    0.2687150000000000    0.2225260000000000 F F F O
   0.0135940000000000    0.6020480000000000    0.2225260000000000 F F F O
   0.0135940000000000    0.9353820000000000    0.2225260000000000 F F F O
   0.5135940000000000    0.1020490000000000    0.2225260000000000 F F F O
   0.5135940000000000    0.4353820000000000    0.2225260000000000 F F F O
   0.5135940000000000    0.7687150000000000    0.2225260000000000 F F F O
   0.0135940000000000    0.0646180000000000    0.0902400000000000 F F F O
   0.0135940000000000    0.0646180000000000    0.3548120000000000 F F F O
   0.0135940000000000    0.3979510000000000    0.0902400000000000 F F F O
   0.0135940000000000    0.3979510000000000    0.3548120000000000 F F F O
   0.0135940000000000    0.7312840000000000    0.0902400000000000 F F F O
   0.0135940000000000    0.7312840000000000    0.3548120000000000 F F F O
   0.5135940000000000    0.2312850000000000    0.0902400000000000 F F F O
   0.5135940000000000    0.2312850000000000    0.3548120000000000 F F F O
   0.5135940000000000    0.5646180000000000    0.0902400000000000 F F F O
   0.5135940000000000    0.5646180000000000    0.3548120000000000 F F F O
   0.5135940000000000    0.8979510000000001    0.0902400000000000 F F F O
   0.5135940000000000    0.8979510000000001    0.3548120000000000 F F F O
   0.1938540000000000    0.1156420000000000    0.3107170000000000 F F F O
   0.1938540000000000    0.4489760000000000    0.3107170000000000 F F F O
   0.1938540000000000    0.7823090000000000    0.3107170000000000 F F F O
   0.6938540000000000    0.2823090000000000    0.3107170000000000 F F F O
   0.6938540000000000    0.6156420000000000    0.3107170000000000 F F F O
   0.6938540000000000    0.9489750000000000    0.3107170000000000 F F F O
   0.1666670000000000    0.2176910000000000    0.0902400000000000 F F F O
   0.1666670000000000    0.2176910000000000    0.3548120000000000 F F F O
   0.1666670000000000    0.5510240000000000    0.0902400000000000 F F F O
   0.1666670000000000    0.5510250000000000    0.3548120000000000 F F F O
   0.1666670000000000    0.8843569999999999    0.0902400000000000 F F F O
   0.1666670000000000    0.8843569999999999    0.3548120000000000 F F F O
   0.6666670000000000    0.0510250000000000    0.0902400000000000 F F F O
   0.6666670000000000    0.0510250000000000    0.3548120000000000 F F F O
   0.6666670000000000    0.3843580000000000    0.0902400000000000 F F F O
   0.6666670000000000    0.3843580000000000    0.3548120000000000 F F F O
   0.6666670000000000    0.7176910000000000    0.0902400000000000 F F F O
   0.6666670000000000    0.7176910000000000    0.3548120000000000 F F F O
   0.3605210000000000    0.0510240000000000    0.0902400000000000 F F F O
   0.3605210000000000    0.0510250000000000    0.3548120000000000 F F F O
   0.3605210000000000    0.3843570000000000    0.0902400000000000 F F F O
   0.3605210000000000    0.3843580000000000    0.3548120000000000 F F F O
   0.3605210000000000    0.7176910000000000    0.0902400000000000 F F F O
   0.3605210000000000    0.7176910000000000    0.3548120000000000 F F F O
   0.8605210000000000    0.2176910000000000    0.0902400000000000 F F F O
   0.8605210000000000    0.2176910000000000    0.3548120000000000 F F F O
   0.8605210000000000    0.5510240000000000    0.0902400000000000 F F F O
   0.8605210000000000    0.5510250000000000    0.3548120000000000 F F F O
   0.8605210000000000    0.8843569999999999    0.0902400000000000 F F F O
   0.8605210000000000    0.8843569999999999    0.3548120000000000 F F F O
   0.0000000000000000    0.2823090000000000    0.3107170000000000 F F F O
   0.0000000000000000    0.6156420000000000    0.3107170000000000 F F F O
   0.0000000000000000    0.9489750000000000    0.3107170000000000 F F F O
   0.5000000000000000    0.1156430000000000    0.3107170000000000 F F F O
   0.5000000000000000    0.4489760000000000    0.3107170000000000 F F F O
   0.5000000000000000    0.7823090000000000    0.3107170000000000 F F F O
   0.3469270000000000    0.2687150000000000    0.3107170000000000 F F F O
   0.3469270000000000    0.6020480000000000    0.3107170000000000 F F F O
   0.3469270000000000    0.9353810000000000    0.3107170000000000 F F F O
   0.8469270000000000    0.1020490000000000    0.3107170000000000 F F F O
   0.8469270000000000    0.4353820000000000    0.3107170000000000 F F F O
   0.8469270000000000    0.7687150000000000    0.3107170000000000 F F F O
   0.3498760129563494    0.2846296118699566    0.4035213534318112 F F F O
   0.0306228777813702    0.2958446367914692    0.4042969662906336 F F F O
   0.6885323163114876    0.2765039404956241    0.4051982302035684 F F F O
   0.5281154834739851    0.1290856783792215    0.4066606994407485 F F F O
   0.8395789623939379    0.4478996683008190    0.4070966002534461 F F F O
   0.7323510415236796    0.6893750979523340    0.4267916802286839 F F F Al
   0.6680061553289555    0.0807029385421940    0.4331133726498225 F F F Al
   0.8947527952235292    0.0792193756073230    0.4126835371906700 F F F O
   0.4118398124808261    0.4471397691295225    0.4324071647911147 F F F O
   0.8656116654808600    0.5736127570177343    0.4152417700874387 F F F O
   0.5064942462548392    0.5929434759174580    0.4171892820745139 F F F O
   0.4357339432099112    0.8009338285772748    0.4283632133058042 F F F O
   0.0955185309489934    0.5188786240603035    0.4215019850186555 F F F O
   0.0800900880910659    0.8365569314749318    0.4254485250613591 F F F O
   0.1978925386597962    0.2064851064353522    0.4268207996048059 F F F O
   0.9699547414308293    0.6329992329471088    0.4337526831874132 F F F O
   0.4936784992334154    0.5182207016867956    0.4318860306655758 F F F O
