Al247 O140
1.0
   8.4283000000000001    0.0000000000000000    0.0000000000000000
   0.0000000000000000   14.5982000000000003    0.0000000000000000
   0.0000000000000000    0.0000000000000000   49.4762690000000021
Al O
247 140
Selective dynamics
direct
   0.0135940000000000    0.1666670000000000    0.1172530000000000 F F F Al
   0.0135940000000000    0.5000000000000000    0.1172530000000000 F F F Al
   0.0135940000000000    0.8333330000000000    0.1172530000000000 F F F Al
   0.5135940000000000    0.0000000000000000    0.1172530000000000 F F F Al
   0.5135940000000000    0.3333330000000000    0.1172530000000000 F F F Al
   0.5135940000000000    0.6666660000000000    0.1172530000000000 F F F Al
   0.3469270000000000    0.1666670000000000    0.1514200000000000 F F F Al
   0.3469270000000000    0.5000000000000000    0.1514200000000000 F F F Al
   0.3469270000000000    0.8333330000000000    0.1514200000000000 F F F Al
   0.8469270000000000    0.0000000000000000    0.1514200000000000 F F F Al
   0.8469270000000000    0.3333330000000000    0.1514200000000000 F F F Al
   0.8469270000000000    0.6666670000000000    0.1514200000000000 F F F Al
   0.1802610000000000    0.0000000000000000    0.1613470000000000 F F F Al
   0.1802610000000000    0.3333330000000000    0.1613470000000000 F F F Al
   0.1802610000000000    0.6666660000000000    0.1613470000000000 F F F Al
   0.6802610000000000    0.1666670000000000    0.1613470000000000 F F F Al
   0.6802610000000000    0.5000000000000000    0.1613470000000000 F F F Al
   0.6802610000000000    0.8333330000000000    0.1613470000000000 F F F Al
   0.0135940000000000    0.1666670000000000    0.1955150000000000 F F F Al
   0.0135940000000000    0.5000000000000000    0.1955150000000000 F F F Al
   0.0135940000000000    0.8333330000000000    0.1955150000000000 F F F Al
   0.5135940000000000    0.0000000000000000    0.1955150000000000 F F F Al
   0.5135940000000000    0.3333330000000000    0.1955150000000000 F F F Al
   0.5135940000000000    0.6666660000000000    0.1955150000000000 F F F Al
   0.3469270000000000    0.1666670000000000    0.2054430000000000 F F F Al
   0.3469270000000000    0.5000000000000000    0.2054430000000000 F F F Al
   0.3469270000000000    0.8333330000000000    0.2054430000000000 F F F Al
   0.8469270000000000    0.0000000000000000    0.2054430000000000 F F F Al
   0.8469270000000000    0.3333330000000000    0.2054430000000000 F F F Al
   0.8469270000000000    0.6666670000000000    0.2054430000000000 F F F Al
   0.1802610000000000    0.0000000000000000    0.2396100000000000 F F F Al
   0.1802610000000000    0.3333330000000000    0.2396100000000000 F F F Al
   0.1802610000000000    0.6666660000000000    0.2396100000000000 F F F Al
   0.6802610000000000    0.1666670000000000    0.2396100000000000 F F F Al
   0.6802610000000000    0.5000000000000000    0.2396100000000000 F F F Al
   0.6802610000000000    0.8333330000000000    0.2396100000000000 F F F Al
   0.0135940000000000    0.1666670000000000    0.2495380000000000 F F F Al
   0.0135940000000000    0.5000000000000000    0.2495380000000000 F F F Al
   0.0135940000000000    0.8333330000000000    0.2495380000000000 F F F Al
   0.5135940000000000    0.0000000000000000    0.2495380000000000 F F F Al
   0.5135940000000000    0.3333330000000000    0.2495380000000000 F F F Al
   0.5135940000000000    0.6666660000000000    0.2495380000000000 F F F Al
   0.3469270000000000    0.1666670000000000    0.2837060000000000 F F F Al
   0.3469270000000000    0.5000000000000000    0.2837060000000000 F F F Al
   0.3469270000000000    0.8333330000000000    0.2837060000000000 F F F Al
   0.8469270000000000    0.0000000000000000    0.2837060000000000 F F F Al
   0.8469270000000000    0.3333330000000000    0.2837060000000000 F F F Al
   0.8469270000000000    0.6666670000000000    0.2837060000000000 F F F Al
   0.1802600000000000    0.0000000000000000    0.2936340000000000 F F F Al
   0.1802600000000000    0.3333330000000000    0.2936340000000000 F F F Al
   0.1802600000000000    0.6666660000000000    0.2936340000000000 F F F Al
   0.6802610000000000    0.1666670000000000    0.2936340000000000 F F F Al
   0.6802610000000000    0.5000000000000000    0.2936340000000000 F F F Al
   0.6802610000000000    0.8333330000000000    0.2936340000000000 F F F Al
   0.0135940000000000    0.1666670000000000    0.0632290000000000 F F F Al
   0.0135940000000000    0.1666670000000000    0.3278010000000000 F F F Al
   0.0135940000000000    0.5000000000000000    0.0632290000000000 F F F Al
   0.0135940000000000    0.5000000000000000    0.3278010000000000 F F F Al
   0.0135940000000000    0.8333330000000000    0.0632290000000000 F F F Al
   0.0135940000000000    0.8333330000000000    0.3278010000000000 F F F Al
   0.5135940000000000    0.0000000000000000    0.0632290000000000 F F F Al
   0.5135940000000000    0.0000000000000000    0.3278010000000000 F F F Al
   0.5135940000000000    0.3333330000000000    0.0632290000000000 F F F Al
   0.5135940000000000    0.3333330000000000    0.3278010000000000 F F F Al
   0.5135940000000000    0.6666660000000000    0.0632290000000000 F F F Al
   0.5135940000000000    0.6666660000000000    0.3278010000000000 F F F Al
   0.3469270000000000    0.1666670000000000    0.0731570000000000 F F F Al
   0.3469270000000000    0.1666670000000000    0.3377280000000000 F F F Al
   0.3469270000000000    0.5000000000000000    0.0731570000000000 F F F Al
   0.3469270000000000    0.5000000000000000    0.3377280000000000 F F F Al
   0.3469270000000000    0.8333330000000000    0.0731570000000000 F F F Al
   0.3469270000000000    0.8333330000000000    0.3377280000000000 F F F Al
   0.8469270000000000    0.0000000000000000    0.0731570000000000 F F F Al
   0.8469270000000000    0.0000000000000000    0.3377280000000000 F F F Al
   0.8469270000000000    0.3333330000000000    0.0731570000000000 F F F Al
   0.8469270000000000    0.3333330000000000    0.3377280000000000 F F F Al
   0.8469270000000000    0.6666670000000000    0.0731570000000000 F F F Al
   0.8469270000000000    0.6666670000000000    0.3377280000000000 F F F Al
   0.1802610000000000    0.0000000000000000    0.1073250000000000 F F F Al
   0.1802610000000000    0.3333330000000000    0.1073250000000000 F F F Al
   0.1802610000000000    0.6666660000000000    0.1073250000000000 F F F Al
   0.6802610000000000    0.1666670000000000    0.1073250000000000 F F F Al
   0.6802610000000000    0.5000000000000000    0.1073250000000000 F F F Al
   0.6802610000000000    0.8333330000000000    0.1073250000000000 F F F Al
   0.0135940000000000    0.1666670000000000    0.3741310000000000 F F F Al
   0.0135940000000000    0.5000000000000000    0.3741310000000000 F F F Al
   0.0135940000000000    0.8333330000000000    0.3741310000000000 F F F Al
   0.5135940000000000    0.0000000000000000    0.3741310000000000 F F F Al
   0.5135940000000000    0.3333330000000000    0.3741310000000000 F F F Al
   0.5135940000000000    0.6666660000000000    0.3741310000000000 F F F Al
   0.3469270000000000    0.1666670000000000    0.3840590000000000 F F F Al
   0.3469270000000000    0.5000000000000000    0.3840590000000000 F F F Al
   0.3469270000000000    0.8333330000000000    0.3840590000000000 F F F Al
   0.8469270000000000    0.0000000000000000    0.3840590000000000 F F F Al
   0.8469270000000000    0.3333330000000000    0.3840590000000000 F F F Al
   0.8469270000000000    0.6666670000000000    0.3840590000000000 F F F Al
   0.8333350000000000    0.0065260000000000    0.8104600000000000 F F F Al
   0.1666670000000000    0.0065260000000000    0.8104600000000000 F F F Al
   0.8333350000000000    0.0087010000000000    0.6693510000000000 F F F Al
   0.1666670000000000    0.0087010000000000    0.6693510000000000 F F F Al
   0.5000010000000000    0.1190870000000000    0.7165410000000000 F F F Al
   0.8333350000000000    0.2294730000000000    0.7637300000000000 F F F Al
   0.1666670000000000    0.2294730000000000    0.7637300000000000 F F F Al
   0.5000010000000000    0.3398590000000000    0.8109200000000000 F F F Al
   0.8333350000000000    0.0108770000000000    0.5282410000000000 F F F Al
   0.1666670000000000    0.0108770000000000    0.5282410000000000 F F F Al
   0.5000010000000000    0.1212620000000000    0.5754320000000001 F F F Al
   0.8333350000000000    0.2316480000000000    0.6226210000000000 F F F Al
   0.1666670000000000    0.2316480000000000    0.6226210000000000 F F F Al
   0.5000010000000000    0.3420340000000000    0.6698110000000000 F F F Al
   0.8333350000000000    0.4524200000000000    0.7170010000000000 F F F Al
   0.1666670000000000    0.4524200000000000    0.7170010000000000 F F F Al
   0.5000010000000000    0.5628060000000000    0.7641910000000000 F F F Al
   0.8333350000000000    0.6731920000000000    0.8113810000000000 F F F Al
   0.1666670000000000    0.6731920000000000    0.8113810000000000 F F F Al
   0.8333350000000000    0.2338240000000000    0.4815130000000000 F F F Al
   0.1666670000000000    0.2338240000000000    0.4815130000000000 F F F Al
   0.5000010000000000    0.3442100000000000    0.5287020000000000 F F F Al
   0.8333350000000000    0.4545950000000000    0.5758920000000000 F F F Al
   0.1666670000000000    0.4545950000000000    0.5758920000000000 F F F Al
   0.5000010000000000    0.5649810000000000    0.6230810000000000 F F F Al
   0.8333350000000000    0.6753670000000001    0.6702720000000000 F F F Al
   0.1666670000000000    0.6753670000000001    0.6702720000000000 F F F Al
   0.5000010000000000    0.7857530000000000    0.7174620000000000 F F F Al
   0.8333350000000000    0.8961390000000000    0.7646510000000000 F F F Al
   0.1666670000000000    0.8961390000000000    0.7646510000000000 F F F Al
   0.5000010000000000    0.5671570000000000    0.4819730000000000 F F F Al
   0.8333350000000000    0.6775430000000000    0.5291620000000000 F F F Al
   0.1666670000000000    0.6775430000000000    0.5291620000000000 F F F Al
   0.5000010000000000    0.7879280000000000    0.5763530000000000 F F F Al
   0.8333350000000000    0.8983139999999999    0.6235420000000000 F F F Al
   0.1666670000000000    0.8983139999999999    0.6235420000000000 F F F Al
   0.8333350000000000    0.9004900000000000    0.4824330000000000 F F F Al
   0.1666670000000000    0.9004900000000000    0.4824330000000000 F F F Al
   0.5000010000000000    0.0065260000000000    0.8104600000000000 F F F Al
   0.5000010000000000    0.0087010000000000    0.6693510000000000 F F F Al
   0.8333350000000000    0.1190870000000000    0.7165410000000000 F F F Al
   0.1666670000000000    0.1190870000000000    0.7165410000000000 F F F Al
   0.5000010000000000    0.2294730000000000    0.7637300000000000 F F F Al
   0.8333350000000000    0.3398590000000000    0.8109200000000000 F F F Al
   0.1666670000000000    0.3398590000000000    0.8109200000000000 F F F Al
   0.5000010000000000    0.0108770000000000    0.5282410000000000 F F F Al
   0.8333350000000000    0.1212620000000000    0.5754320000000001 F F F Al
   0.1666670000000000    0.1212620000000000    0.5754320000000001 F F F Al
   0.5000010000000000    0.2316480000000000    0.6226210000000000 F F F Al
   0.8333350000000000    0.3420340000000000    0.6698110000000000 F F F Al
   0.1666670000000000    0.3420340000000000    0.6698110000000000 F F F Al
   0.5000010000000000    0.4524200000000000    0.7170010000000000 F F F Al
   0.8333350000000000    0.5628060000000000    0.7641910000000000 F F F Al
   0.1666670000000000    0.5628060000000000    0.7641910000000000 F F F Al
   0.5000010000000000    0.6731920000000000    0.8113810000000000 F F F Al
   0.5000010000000000    0.2338240000000000    0.4815130000000000 F F F Al
   0.8333350000000000    0.3442100000000000    0.5287020000000000 F F F Al
   0.1666670000000000    0.3442100000000000    0.5287020000000000 F F F Al
   0.5000010000000000    0.4545950000000000    0.5758920000000000 F F F Al
   0.8333350000000000    0.5649810000000000    0.6230810000000000 F F F Al
   0.1666670000000000    0.5649810000000000    0.6230810000000000 F F F Al
   0.5000010000000000    0.6753670000000001    0.6702720000000000 F F F Al
   0.8333350000000000    0.7857530000000000    0.7174620000000000 F F F Al
   0.1666670000000000    0.7857530000000000    0.7174620000000000 F F F Al
   0.5000010000000000    0.8961390000000000    0.7646510000000000 F F F Al
   0.8333350000000000    0.5671570000000000    0.4819730000000000 F F F Al
   0.1666670000000000    0.5671570000000000    0.4819730000000000 F F F Al
   0.5000010000000000    0.6775430000000000    0.5291620000000000 F F F Al
   0.8333350000000000    0.7879280000000000    0.5763530000000000 F F F Al
   0.1666670000000000    0.7879280000000000    0.5763530000000000 F F F Al
   0.5000010000000000    0.8983139999999999    0.6235420000000000 F F F Al
   0.5000010000000000    0.9004900000000000    0.4824330000000000 F F F Al
   0.6666680000000000    0.0628070000000000    0.7635000000000000 F F F Al
   0.0000000000000000    0.0628070000000000    0.7635000000000000 F F F Al
   0.3333340000000000    0.1731920000000000    0.8106910000000001 F F F Al
   0.6666680000000000    0.0649820000000000    0.6223910000000000 F F F Al
   0.0000000000000000    0.0649820000000000    0.6223910000000000 F F F Al
   0.3333340000000000    0.1753680000000000    0.6695810000000000 F F F Al
   0.6666680000000000    0.2857540000000000    0.7167710000000000 F F F Al
   0.0000000000000000    0.2857540000000000    0.7167710000000000 F F F Al
   0.3333340000000000    0.3961400000000000    0.7639610000000000 F F F Al
   0.6666680000000000    0.5065250000000000    0.8111510000000000 F F F Al
   0.0000000000000000    0.5065250000000000    0.8111510000000000 F F F Al
   0.6666680000000000    0.0671570000000000    0.4812820000000000 F F F Al
   0.0000000000000000    0.0671570000000000    0.4812820000000000 F F F Al
   0.3333340000000000    0.1775430000000000    0.5284720000000001 F F F Al
   0.6666680000000000    0.2879290000000000    0.5756610000000000 F F F Al
   0.0000000000000000    0.2879290000000000    0.5756610000000000 F F F Al
   0.3333340000000000    0.3983150000000000    0.6228520000000000 F F F Al
   0.6666680000000000    0.5087010000000000    0.6700420000000000 F F F Al
   0.0000000000000000    0.5087010000000000    0.6700420000000000 F F F Al
   0.3333340000000000    0.6190870000000001    0.7172310000000000 F F F Al
   0.6666680000000000    0.7294730000000000    0.7644210000000000 F F F Al
   0.0000000000000000    0.7294730000000000    0.7644210000000000 F F F Al
   0.3333340000000000    0.8398590000000000    0.8116120000000000 F F F Al
   0.3333340000000000    0.4004900000000000    0.4817420000000000 F F F Al
   0.6666680000000000    0.5108760000000000    0.5289330000000000 F F F Al
   0.0000000000000000    0.5108760000000000    0.5289330000000000 F F F Al
   0.3333340000000000    0.6212620000000000    0.5761220000000000 F F F Al
   0.6666680000000000    0.7316480000000000    0.6233120000000000 F F F Al
   0.0000000000000000    0.7316480000000000    0.6233120000000000 F F F Al
   0.3333340000000000    0.8420339999999999    0.6705020000000000 F F F Al
   0.6666680000000000    0.9524200000000000    0.7176920000000000 F F F Al
   0.0000000000000000    0.9524200000000000    0.7176920000000000 F F F Al
   0.6666680000000000    0.7338230000000000    0.4822030000000000 F F F Al
   0.0000000000000000    0.7338230000000000    0.4822030000000000 F F F Al
   0.3333340000000000    0.8442090000000000    0.5293930000000000 F F F Al
   0.6666680000000000    0.9545950000000000    0.5765820000000000 F F F Al
   0.0000000000000000    0.9545950000000000    0.5765820000000000 F F F Al
   0.3333340000000000    0.0628070000000000    0.7635000000000000 F F F Al
   0.6666680000000000    0.1731920000000000    0.8106910000000001 F F F Al
   0.0000000000000000    0.1731920000000000    0.8106910000000001 F F F Al
   0.3333340000000000    0.0649820000000000    0.6223910000000000 F F F Al
   0.6666680000000000    0.1753680000000000    0.6695810000000000 F F F Al
   0.0000000000000000    0.1753680000000000    0.6695810000000000 F F F Al
   0.3333340000000000    0.2857540000000000    0.7167710000000000 F F F Al
   0.6666680000000000    0.3961400000000000    0.7639610000000000 F F F Al
   0.0000000000000000    0.3961400000000000    0.7639610000000000 F F F Al
   0.3333340000000000    0.5065250000000000    0.8111510000000000 F F F Al
   0.3333340000000000    0.0671570000000000    0.4812820000000000 F F F Al
   0.6666680000000000    0.1775430000000000    0.5284720000000001 F F F Al
   0.0000000000000000    0.1775430000000000    0.5284720000000001 F F F Al
   0.3333340000000000    0.2879290000000000    0.5756610000000000 F F F Al
   0.6666680000000000    0.3983150000000000    0.6228520000000000 F F F Al
   0.0000000000000000    0.3983150000000000    0.6228520000000000 F F F Al
   0.3333340000000000    0.5087010000000000    0.6700420000000000 F F F Al
   0.6666680000000000    0.6190870000000001    0.7172310000000000 F F F Al
   0.0000000000000000    0.6190870000000001    0.7172310000000000 F F F Al
   0.3333340000000000    0.7294730000000000    0.7644210000000000 F F F Al
   0.6666680000000000    0.8398590000000000    0.8116120000000000 F F F Al
   0.0000000000000000    0.8398590000000000    0.8116120000000000 F F F Al
   0.6666680000000000    0.4004900000000000    0.4817420000000000 F F F Al
   0.0000000000000000    0.4004900000000000    0.4817420000000000 F F F Al
   0.3333340000000000    0.5108760000000000    0.5289330000000000 F F F Al
   0.6666680000000000    0.6212620000000000    0.5761220000000000 F F F Al
   0.0000000000000000    0.6212620000000000    0.5761220000000000 F F F Al
   0.3333340000000000    0.7316480000000000    0.6233120000000000 F F F Al
   0.6666680000000000    0.8420339999999999    0.6705020000000000 F F F Al
   0.0000000000000000    0.8420339999999999    0.6705020000000000 F F F Al
   0.3333340000000000    0.9524200000000000    0.7176920000000000 F F F Al
   0.3333340000000000    0.7338230000000000    0.4822030000000000 F F F Al
   0.6666680000000000    0.8442090000000000    0.5293930000000000 F F F Al
   0.0000000000000000    0.8442090000000000    0.5293930000000000 F F F Al
   0.3333340000000000    0.9545950000000000    0.5765820000000000 F F F Al
   0.1583654144447095    0.1253426732422131    0.4284531048905292 F F F Al
   0.4767600895834583    0.1100289899728197    0.4288666646209596 F F F Al
   0.8676347121247776    0.7767710628704324    0.4290697441518448 F F F Al
   0.6687804213618791    0.6291615236860463    0.4292989528809740 F F F Al
   0.1831434464425760    0.8000134485689588    0.4293963680459997 F F F Al
   0.3421403541774171    0.9600904538857861    0.4294466445988777 F F F Al
   0.0045237242464033    0.2780657659208538    0.4297586290938432 F F F Al
   0.3469270000000000    0.0646180000000000    0.1784310000000000 F F F O
   0.3469270000000000    0.3979510000000000    0.1784310000000000 F F F O
   0.3469270000000000    0.7312840000000000    0.1784310000000000 F F F O
   0.8469270000000000    0.2312850000000000    0.1784310000000000 F F F O
   0.8469270000000000    0.5646180000000000    0.1784310000000000 F F F O
   0.8469270000000000    0.8979510000000001    0.1784310000000000 F F F O
   0.0271870000000000    0.2823090000000000    0.1343360000000000 F F F O
   0.0271870000000000    0.6156420000000000    0.1343360000000000 F F F O
   0.0271870000000000    0.9489750000000000    0.1343360000000000 F F F O
   0.5271870000000000    0.1156420000000000    0.1343360000000000 F F F O
   0.5271870000000000    0.4489760000000000    0.1343360000000000 F F F O
   0.5271870000000000    0.7823090000000000    0.1343360000000000 F F F O
   0.0000000000000000    0.0510240000000000    0.1784310000000000 F F F O
   0.0000000000000000    0.3843570000000000    0.1784310000000000 F F F O
   0.0000000000000000    0.7176910000000000    0.1784310000000000 F F F O
   0.5000000000000000    0.2176910000000000    0.1784310000000000 F F F O
   0.5000000000000000    0.5510240000000000    0.1784310000000000 F F F O
   0.5000000000000000    0.8843569999999999    0.1784310000000000 F F F O
   0.1938540000000000    0.2176910000000000    0.1784310000000000 F F F O
   0.1938540000000000    0.5510240000000000    0.1784310000000000 F F F O
   0.1938540000000000    0.8843569999999999    0.1784310000000000 F F F O
   0.6938540000000000    0.0510250000000000    0.1784310000000000 F F F O
   0.6938540000000000    0.3843580000000000    0.1784310000000000 F F F O
   0.6938540000000000    0.7176910000000000    0.1784310000000000 F F F O
   0.3333340000000000    0.2823090000000000    0.1343360000000000 F F F O
   0.3333340000000000    0.6156420000000000    0.1343360000000000 F F F O
   0.3333340000000000    0.9489750000000000    0.1343360000000000 F F F O
   0.8333340000000000    0.1156420000000000    0.1343360000000000 F F F O
   0.8333340000000000    0.4489760000000000    0.1343360000000000 F F F O
   0.8333340000000000    0.7823090000000000    0.1343360000000000 F F F O
   0.1802610000000000    0.1020490000000000    0.1343360000000000 F F F O
   0.1802610000000000    0.4353820000000000    0.1343360000000000 F F F O
   0.1802610000000000    0.7687150000000000    0.1343360000000000 F F F O
   0.6802610000000000    0.2687150000000000    0.1343360000000000 F F F O
   0.6802610000000000    0.6020489999999999    0.1343360000000000 F F F O
   0.6802610000000000    0.9353820000000000    0.1343360000000000 F F F O
   0.1802610000000000    0.2312850000000000    0.2666210000000000 F F F O
   0.1802610000000000    0.5646180000000000    0.2666210000000000 F F F O
   0.1802610000000000    0.8979510000000001    0.2666210000000000 F F F O
   0.6802610000000000    0.0646180000000000    0.2666210000000000 F F F O
   0.6802610000000000    0.3979510000000000    0.2666210000000000 F F F O
   0.6802610000000000    0.7312840000000000    0.2666210000000000 F F F O
   0.3605210000000000    0.2823090000000000    0.2225260000000000 F F F O
   0.3605210000000000    0.6156420000000000    0.2225260000000000 F F F O
   0.3605210000000000    0.9489750000000000    0.2225260000000000 F F F O
   0.8605210000000000    0.1156430000000000    0.2225260000000000 F F F O
   0.8605210000000000    0.4489760000000000    0.2225260000000000 F F F O
   0.8605210000000000    0.7823090000000000    0.2225260000000000 F F F O
   0.3333340000000000    0.0510250000000000    0.2666210000000000 F F F O
   0.3333340000000000    0.3843580000000000    0.2666210000000000 F F F O
   0.3333340000000000    0.7176910000000000    0.2666210000000000 F F F O
   0.8333340000000000    0.2176910000000000    0.2666210000000000 F F F O
   0.8333340000000000    0.5510240000000000    0.2666210000000000 F F F O
   0.8333340000000000    0.8843569999999999    0.2666210000000000 F F F O
   0.0271870000000000    0.0510250000000000    0.2666210000000000 F F F O
   0.0271870000000000    0.3843580000000000    0.2666210000000000 F F F O
   0.0271870000000000    0.7176910000000000    0.2666210000000000 F F F O
   0.5271870000000000    0.2176910000000000    0.2666210000000000 F F F O
   0.5271870000000000    0.5510240000000000    0.2666210000000000 F F F O
   0.5271870000000000    0.8843569999999999    0.2666210000000000 F F F O
   0.1666670000000000    0.1156420000000000    0.2225260000000000 F F F O
   0.1666670000000000    0.4489760000000000    0.2225260000000000 F F F O
   0.1666670000000000    0.7823090000000000    0.2225260000000000 F F F O
   0.6666670000000000    0.2823090000000000    0.2225260000000000 F F F O
   0.6666670000000000    0.6156420000000000    0.2225260000000000 F F F O
   0.6666670000000000    0.9489750000000000    0.2225260000000000 F F F O
   0.0135940000000000    0.2687150000000000    0.2225260000000000 F F F O
   0.0135940000000000    0.6020480000000000    0.2225260000000000 F F F O
   0.0135940000000000    0.9353820000000000    0.2225260000000000 F F F O
   0.5135940000000000    0.1020490000000000    0.2225260000000000 F F F O
   0.5135940000000000    0.4353820000000000    0.2225260000000000 F F F O
   0.5135940000000000    0.7687150000000000    0.2225260000000000 F F F O
   0.0135940000000000    0.0646180000000000    0.0902400000000000 F F F O
   0.0135940000000000    0.0646180000000000    0.3548120000000000 F F F O
   0.0135940000000000    0.3979510000000000    0.0902400000000000 F F F O
   0.0135940000000000    0.3979510000000000    0.3548120000000000 F F F O
   0.0135940000000000    0.7312840000000000    0.0902400000000000 F F F O
   0.0135940000000000    0.7312840000000000    0.3548120000000000 F F F O
   0.5135940000000000    0.2312850000000000    0.0902400000000000 F F F O
   0.5135940000000000    0.2312850000000000    0.3548120000000000 F F F O
   0.5135940000000000    0.5646180000000000    0.0902400000000000 F F F O
   0.5135940000000000    0.5646180000000000    0.3548120000000000 F F F O
   0.5135940000000000    0.8979510000000001    0.0902400000000000 F F F O
   0.5135940000000000    0.8979510000000001    0.3548120000000000 F F F O
   0.1938540000000000    0.1156420000000000    0.3107170000000000 F F F O
   0.1938540000000000    0.4489760000000000    0.3107170000000000 F F F O
   0.1938540000000000    0.7823090000000000    0.3107170000000000 F F F O
   0.6938540000000000    0.2823090000000000    0.3107170000000000 F F F O
   0.6938540000000000    0.6156420000000000    0.3107170000000000 F F F O
   0.6938540000000000    0.9489750000000000    0.3107170000000000 F F F O
   0.1666670000000000    0.2176910000000000    0.0902400000000000 F F F O
   0.1666670000000000    0.2176910000000000    0.3548120000000000 F F F O
   0.1666670000000000    0.5510240000000000    0.0902400000000000 F F F O
   0.1666670000000000    0.5510250000000000    0.3548120000000000 F F F O
   0.1666670000000000    0.8843569999999999    0.0902400000000000 F F F O
   0.1666670000000000    0.8843569999999999    0.3548120000000000 F F F O
   0.6666670000000000    0.0510250000000000    0.0902400000000000 F F F O
   0.6666670000000000    0.0510250000000000    0.3548120000000000 F F F O
   0.6666670000000000    0.3843580000000000    0.0902400000000000 F F F O
   0.6666670000000000    0.3843580000000000    0.3548120000000000 F F F O
   0.6666670000000000    0.7176910000000000    0.0902400000000000 F F F O
   0.6666670000000000    0.7176910000000000    0.3548120000000000 F F F O
   0.3605210000000000    0.0510240000000000    0.0902400000000000 F F F O
   0.3605210000000000    0.0510250000000000    0.3548120000000000 F F F O
   0.3605210000000000    0.3843570000000000    0.0902400000000000 F F F O
   0.3605210000000000    0.3843580000000000    0.3548120000000000 F F F O
   0.3605210000000000    0.7176910000000000    0.0902400000000000 F F F O
   0.3605210000000000    0.7176910000000000    0.3548120000000000 F F F O
   0.8605210000000000    0.2176910000000000    0.0902400000000000 F F F O
   0.8605210000000000    0.2176910000000000    0.3548120000000000 F F F O
   0.8605210000000000    0.5510240000000000    0.0902400000000000 F F F O
   0.8605210000000000    0.5510250000000000    0.3548120000000000 F F F O
   0.8605210000000000    0.8843569999999999    0.0902400000000000 F F F O
   0.8605210000000000    0.8843569999999999    0.3548120000000000 F F F O
   0.0000000000000000    0.2823090000000000    0.3107170000000000 F F F O
   0.0000000000000000    0.6156420000000000    0.3107170000000000 F F F O
   0.0000000000000000    0.9489750000000000    0.3107170000000000 F F F O
   0.5000000000000000    0.1156430000000000    0.3107170000000000 F F F O
   0.5000000000000000    0.4489760000000000    0.3107170000000000 F F F O
   0.5000000000000000    0.7823090000000000    0.3107170000000000 F F F O
   0.3469270000000000    0.2687150000000000    0.3107170000000000 F F F O
   0.3469270000000000    0.6020480000000000    0.3107170000000000 F F F O
   0.3469270000000000    0.9353810000000000    0.3107170000000000 F F F O
   0.8469270000000000    0.1020490000000000    0.3107170000000000 F F F O
   0.8469270000000000    0.4353820000000000    0.3107170000000000 F F F O
   0.8469270000000000    0.7687150000000000    0.3107170000000000 F F F O
   0.8387615690116776    0.4153681476837865    0.4239733985042581 F F F O
   0.8295173378542610    0.2966120185069068    0.4257969728624538 F F F O
   0.5531786273456929    0.2229231709300336    0.4046058572790598 F F F O
   0.0232247710182147    0.9395307709463536    0.4280548691019804 F F F O
   0.4249726721850616    0.3628213201468006    0.4290201403828591 F F F O
   0.2596776416508995    0.7162400293652235    0.4053591792336311 F F F O
   0.4878236063303818    0.7350078314839797    0.4260782810422724 F F F O
   0.9588199589736313    0.5936977310622101    0.4039429318508160 F F F O
   0.5299253101701477    0.5448123480570335    0.4319483295564038 F F F O
   0.0794941686564109    0.3746374478477187    0.4025693193501270 F F F O
   0.5808461360556606    0.9556189434263341    0.4313246057987803 F F F O
   0.4130256694940444    0.6656464309093238    0.4111290852865735 F F F O
   0.8946737455160698    0.9200884254336034    0.4185240024786051 F F F O
   0.1691760911063439    0.6926701495880399    0.4228087801825391 F F F O
