LAMMPS (28 Mar 2023 - Update 1)
  using 1 OpenMP thread(s) per MPI task
# CdTe cluster
units metal
dimension 3
boundary p p p
atom_style  charge
read_data in.data
Reading data file ...
  orthogonal box = (0 0 0) to (8.4283 14.5982 49.476269)
  1 by 1 by 2 MPI processor grid
  reading atoms ...
  383 atoms
  read_data CPU = 0.004 seconds


mass 1 26.9815386
mass 2 15.9994

pair_style comb3 polar_off
pair_coeff * * /home/yuxin.chang/fantastx/examples/Al_Al2O3_lmp_ex_yuxin_edit/ffield.comb3.NiAlO Al O

neighbor 4.0 bin
neigh_modify one 2000
neigh_modify delay 0 every 10 check yes

region top_grain block INF INF INF INF 23.8 45
region bottom_grain block INF INF INF INF 1 19.1
group top region top_grain
144 atoms in group top
group bot region bottom_grain
222 atoms in group bot
group both_grains union top bot
366 atoms in group both_grains
fix ff both_grains setforce 0.0 0.0 0.0

minimize 0.0 1.0e-6 1 1
Switching to 'neigh_modify every 1 delay 0 check yes' setting during minimization
Neighbor list info ...
  update: every = 1 steps, delay = 0 steps, check = yes
  max neighbors/atom: 2000, page size: 100000
  master list distance cutoff = 15
  ghost atom cutoff = 15
  binsize = 7.5, bins = 2 2 7
  1 neighbor lists, perpetual/occasional/extra = 1 0 0
  (1) pair comb3, perpetual
      attributes: full, newton on, ghost
      pair build: full/bin/ghost
      stencil: full/ghost/bin/3d
      bin: standard
Per MPI rank memory allocation (min/avg/max) = 21.74 | 21.93 | 22.13 Mbytes
   Step          Temp          E_pair         E_mol          TotEng         Press     
         0   0             -1521.2414      0             -1521.2414      42934.752    
         1   0             -1523.1449      0             -1523.1449      41820.91     
Loop time of 0.0974463 on 2 procs for 1 steps with 383 atoms

97.6% CPU use with 2 MPI tasks x 1 OpenMP threads

Minimization stats:
  Stopping criterion = max force evaluations
  Energy initial, next-to-last, final = 
      -1521.2414043422   -1521.2414043422  -1523.14489195701
  Force two-norm initial, final = 17.852513 11.493569
  Force max component initial, final = 13.401835 7.5556891
  Final line search alpha, max atom move = 0.0074616646 0.056378018
  Iterations, force evaluations = 1 1

MPI task timing breakdown:
Section |  min time  |  avg time  |  max time  |%varavg| %total
---------------------------------------------------------------
Pair    | 0.06466    | 0.080815   | 0.09697    |   5.7 | 82.93
Neigh   | 0          | 0          | 0          |   0.0 |  0.00
Comm    | 0.00025536 | 0.016403   | 0.032551   |  12.6 | 16.83
Output  | 0          | 0          | 0          |   0.0 |  0.00
Modify  | 7.203e-06  | 8.079e-06  | 8.955e-06  |   0.0 |  0.01
Other   |            | 0.0002199  |            |       |  0.23

Nlocal:          191.5 ave         257 max         126 min
Histogram: 1 0 0 0 0 0 0 0 0 1
Nghost:         5788.5 ave        6067 max        5510 min
Histogram: 1 0 0 0 0 0 0 0 0 1
Neighs:              0 ave           0 max           0 min
Histogram: 2 0 0 0 0 0 0 0 0 0
FullNghs:       195456 ave      293721 max       97191 min
Histogram: 1 0 0 0 0 0 0 0 0 1

Total # of neighbors = 390912
Ave neighs/atom = 1020.658
Neighbor list builds = 0
Dangerous builds = 0

#thermo_style multi
#thermo 100

#fix 1 all box/relax aniso 0.0

#region bulk union 2 bulk1 bulk2
compute peatom all pe/atom
dump myDump all custom 1000 rlx.str id type x y z c_peatom

minimize 1.0e-6 1.0e-6 5000 10000
Switching to 'neigh_modify every 1 delay 0 check yes' setting during minimization
Per MPI rank memory allocation (min/avg/max) = 21.86 | 22.06 | 22.25 Mbytes
   Step          Temp          E_pair         E_mol          TotEng         Press     
         1   0             -1523.1449      0             -1523.1449      41820.91     
        78   0             -1541.3139      0             -1541.3139      41443.656    
Loop time of 6.66628 on 2 procs for 77 steps with 383 atoms

97.5% CPU use with 2 MPI tasks x 1 OpenMP threads

Minimization stats:
  Stopping criterion = energy tolerance
  Energy initial, next-to-last, final = 
     -1523.14489195701  -1541.31325530188  -1541.31392416343
  Force two-norm initial, final = 11.493569 0.21112252
  Force max component initial, final = 7.5556891 0.11235857
  Final line search alpha, max atom move = 0.25062082 0.028159398
  Iterations, force evaluations = 77 134

MPI task timing breakdown:
Section |  min time  |  avg time  |  max time  |%varavg| %total
---------------------------------------------------------------
Pair    | 4.4111     | 5.5257     | 6.6403     |  47.4 | 82.89
Neigh   | 0          | 0          | 0          |   0.0 |  0.00
Comm    | 0.016608   | 1.1307     | 2.2448     | 104.8 | 16.96
Output  | 0          | 0          | 0          |   0.0 |  0.00
Modify  | 0.0004163  | 0.00048493 | 0.00055355 |   0.0 |  0.01
Other   |            | 0.009386   |            |       |  0.14

Nlocal:          191.5 ave         257 max         126 min
Histogram: 1 0 0 0 0 0 0 0 0 1
Nghost:         5788.5 ave        6067 max        5510 min
Histogram: 1 0 0 0 0 0 0 0 0 1
Neighs:              0 ave           0 max           0 min
Histogram: 2 0 0 0 0 0 0 0 0 0
FullNghs:       195454 ave      293711 max       97197 min
Histogram: 1 0 0 0 0 0 0 0 0 1

Total # of neighbors = 390908
Ave neighs/atom = 1020.6475
Neighbor list builds = 0
Dangerous builds = 0
Total wall time: 0:00:07
