Al249 O141
1.0
   8.4283000000000001    0.0000000000000000    0.0000000000000000
   0.0000000000000000   14.5982000000000003    0.0000000000000000
   0.0000000000000000    0.0000000000000000   49.4762690000000021
Al O Al O
248 127 1 14
Selective dynamics
direct
   0.0135940000000000    0.1666670000000000    0.1172530000000000 F F F Al
   0.0135940000000000    0.5000000000000000    0.1172530000000000 F F F Al
   0.0135940000000000    0.8333330000000000    0.1172530000000000 F F F Al
   0.5135940000000000    0.0000000000000000    0.1172530000000000 F F F Al
   0.5135940000000000    0.3333330000000000    0.1172530000000000 F F F Al
   0.5135940000000000    0.6666660000000000    0.1172530000000000 F F F Al
   0.3469270000000000    0.1666670000000000    0.1514200000000000 F F F Al
   0.3469270000000000    0.5000000000000000    0.1514200000000000 F F F Al
   0.3469270000000000    0.8333330000000000    0.1514200000000000 F F F Al
   0.8469270000000000    0.0000000000000000    0.1514200000000000 F F F Al
   0.8469270000000000    0.3333330000000000    0.1514200000000000 F F F Al
   0.8469270000000000    0.6666670000000000    0.1514200000000000 F F F Al
   0.1802610000000000    0.0000000000000000    0.1613470000000000 F F F Al
   0.1802610000000000    0.3333330000000000    0.1613470000000000 F F F Al
   0.1802610000000000    0.6666660000000000    0.1613470000000000 F F F Al
   0.6802610000000000    0.1666670000000000    0.1613470000000000 F F F Al
   0.6802610000000000    0.5000000000000000    0.1613470000000000 F F F Al
   0.6802610000000000    0.8333330000000000    0.1613470000000000 F F F Al
   0.0135940000000000    0.1666670000000000    0.1955150000000000 F F F Al
   0.0135940000000000    0.5000000000000000    0.1955150000000000 F F F Al
   0.0135940000000000    0.8333330000000000    0.1955150000000000 F F F Al
   0.5135940000000000    0.0000000000000000    0.1955150000000000 F F F Al
   0.5135940000000000    0.3333330000000000    0.1955150000000000 F F F Al
   0.5135940000000000    0.6666660000000000    0.1955150000000000 F F F Al
   0.3469270000000000    0.1666670000000000    0.2054430000000000 F F F Al
   0.3469270000000000    0.5000000000000000    0.2054430000000000 F F F Al
   0.3469270000000000    0.8333330000000000    0.2054430000000000 F F F Al
   0.8469270000000000    0.0000000000000000    0.2054430000000000 F F F Al
   0.8469270000000000    0.3333330000000000    0.2054430000000000 F F F Al
   0.8469270000000000    0.6666670000000000    0.2054430000000000 F F F Al
   0.1802610000000000    0.0000000000000000    0.2396100000000000 F F F Al
   0.1802610000000000    0.3333330000000000    0.2396100000000000 F F F Al
   0.1802610000000000    0.6666660000000000    0.2396100000000000 F F F Al
   0.6802610000000000    0.1666670000000000    0.2396100000000000 F F F Al
   0.6802610000000000    0.5000000000000000    0.2396100000000000 F F F Al
   0.6802610000000000    0.8333330000000000    0.2396100000000000 F F F Al
   0.0135940000000000    0.1666670000000000    0.2495380000000000 F F F Al
   0.0135940000000000    0.5000000000000000    0.2495380000000000 F F F Al
   0.0135940000000000    0.8333330000000000    0.2495380000000000 F F F Al
   0.5135940000000000    0.0000000000000000    0.2495380000000000 F F F Al
   0.5135940000000000    0.3333330000000000    0.2495380000000000 F F F Al
   0.5135940000000000    0.6666660000000000    0.2495380000000000 F F F Al
   0.3469270000000000    0.1666670000000000    0.2837060000000000 F F F Al
   0.3469270000000000    0.5000000000000000    0.2837060000000000 F F F Al
   0.3469270000000000    0.8333330000000000    0.2837060000000000 F F F Al
   0.8469270000000000    0.0000000000000000    0.2837060000000000 F F F Al
   0.8469270000000000    0.3333330000000000    0.2837060000000000 F F F Al
   0.8469270000000000    0.6666670000000000    0.2837060000000000 F F F Al
   0.1802600000000000    0.0000000000000000    0.2936340000000000 F F F Al
   0.1802600000000000    0.3333330000000000    0.2936340000000000 F F F Al
   0.1802600000000000    0.6666660000000000    0.2936340000000000 F F F Al
   0.6802610000000000    0.1666670000000000    0.2936340000000000 F F F Al
   0.6802610000000000    0.5000000000000000    0.2936340000000000 F F F Al
   0.6802610000000000    0.8333330000000000    0.2936340000000000 F F F Al
   0.0135940000000000    0.1666670000000000    0.0632290000000000 F F F Al
   0.0135940000000000    0.1666670000000000    0.3278010000000000 F F F Al
   0.0135940000000000    0.5000000000000000    0.0632290000000000 F F F Al
   0.0135940000000000    0.5000000000000000    0.3278010000000000 F F F Al
   0.0135940000000000    0.8333330000000000    0.0632290000000000 F F F Al
   0.0135940000000000    0.8333330000000000    0.3278010000000000 F F F Al
   0.5135940000000000    0.0000000000000000    0.0632290000000000 F F F Al
   0.5135940000000000    0.0000000000000000    0.3278010000000000 F F F Al
   0.5135940000000000    0.3333330000000000    0.0632290000000000 F F F Al
   0.5135940000000000    0.3333330000000000    0.3278010000000000 F F F Al
   0.5135940000000000    0.6666660000000000    0.0632290000000000 F F F Al
   0.5135940000000000    0.6666660000000000    0.3278010000000000 F F F Al
   0.3469270000000000    0.1666670000000000    0.0731570000000000 F F F Al
   0.3469270000000000    0.1666670000000000    0.3377280000000000 F F F Al
   0.3469270000000000    0.5000000000000000    0.0731570000000000 F F F Al
   0.3469270000000000    0.5000000000000000    0.3377280000000000 F F F Al
   0.3469270000000000    0.8333330000000000    0.0731570000000000 F F F Al
   0.3469270000000000    0.8333330000000000    0.3377280000000000 F F F Al
   0.8469270000000000    0.0000000000000000    0.0731570000000000 F F F Al
   0.8469270000000000    0.0000000000000000    0.3377280000000000 F F F Al
   0.8469270000000000    0.3333330000000000    0.0731570000000000 F F F Al
   0.8469270000000000    0.3333330000000000    0.3377280000000000 F F F Al
   0.8469270000000000    0.6666670000000000    0.0731570000000000 F F F Al
   0.8469270000000000    0.6666670000000000    0.3377280000000000 F F F Al
   0.1802610000000000    0.0000000000000000    0.1073250000000000 F F F Al
   0.1802610000000000    0.3333330000000000    0.1073250000000000 F F F Al
   0.1802610000000000    0.6666660000000000    0.1073250000000000 F F F Al
   0.6802610000000000    0.1666670000000000    0.1073250000000000 F F F Al
   0.6802610000000000    0.5000000000000000    0.1073250000000000 F F F Al
   0.6802610000000000    0.8333330000000000    0.1073250000000000 F F F Al
   0.0135940000000000    0.1666670000000000    0.3741310000000000 F F F Al
   0.0135940000000000    0.5000000000000000    0.3741310000000000 F F F Al
   0.0135940000000000    0.8333330000000000    0.3741310000000000 F F F Al
   0.5135940000000000    0.0000000000000000    0.3741310000000000 F F F Al
   0.5135940000000000    0.3333330000000000    0.3741310000000000 F F F Al
   0.5135940000000000    0.6666660000000000    0.3741310000000000 F F F Al
   0.3469270000000000    0.1666670000000000    0.3840590000000000 F F F Al
   0.3469270000000000    0.5000000000000000    0.3840590000000000 F F F Al
   0.3469270000000000    0.8333330000000000    0.3840590000000000 F F F Al
   0.8469270000000000    0.0000000000000000    0.3840590000000000 F F F Al
   0.8469270000000000    0.3333330000000000    0.3840590000000000 F F F Al
   0.8469270000000000    0.6666670000000000    0.3840590000000000 F F F Al
   0.8333350000000000    0.0065260000000000    0.8104600000000000 F F F Al
   0.1666670000000000    0.0065260000000000    0.8104600000000000 F F F Al
   0.8333350000000000    0.0087010000000000    0.6693510000000000 F F F Al
   0.1666670000000000    0.0087010000000000    0.6693510000000000 F F F Al
   0.5000010000000000    0.1190870000000000    0.7165410000000000 F F F Al
   0.8333350000000000    0.2294730000000000    0.7637300000000000 F F F Al
   0.1666670000000000    0.2294730000000000    0.7637300000000000 F F F Al
   0.5000010000000000    0.3398590000000000    0.8109200000000000 F F F Al
   0.8333350000000000    0.0108770000000000    0.5282410000000000 F F F Al
   0.1666670000000000    0.0108770000000000    0.5282410000000000 F F F Al
   0.5000010000000000    0.1212620000000000    0.5754320000000001 F F F Al
   0.8333350000000000    0.2316480000000000    0.6226210000000000 F F F Al
   0.1666670000000000    0.2316480000000000    0.6226210000000000 F F F Al
   0.5000010000000000    0.3420340000000000    0.6698110000000000 F F F Al
   0.8333350000000000    0.4524200000000000    0.7170010000000000 F F F Al
   0.1666670000000000    0.4524200000000000    0.7170010000000000 F F F Al
   0.5000010000000000    0.5628060000000000    0.7641910000000000 F F F Al
   0.8333350000000000    0.6731920000000000    0.8113810000000000 F F F Al
   0.1666670000000000    0.6731920000000000    0.8113810000000000 F F F Al
   0.8333350000000000    0.2338240000000000    0.4815130000000000 F F F Al
   0.1666670000000000    0.2338240000000000    0.4815130000000000 F F F Al
   0.5000010000000000    0.3442100000000000    0.5287020000000000 F F F Al
   0.8333350000000000    0.4545950000000000    0.5758920000000000 F F F Al
   0.1666670000000000    0.4545950000000000    0.5758920000000000 F F F Al
   0.5000010000000000    0.5649810000000000    0.6230810000000000 F F F Al
   0.8333350000000000    0.6753670000000001    0.6702720000000000 F F F Al
   0.1666670000000000    0.6753670000000001    0.6702720000000000 F F F Al
   0.5000010000000000    0.7857530000000000    0.7174620000000000 F F F Al
   0.8333350000000000    0.8961390000000000    0.7646510000000000 F F F Al
   0.1666670000000000    0.8961390000000000    0.7646510000000000 F F F Al
   0.5000010000000000    0.5671570000000000    0.4819730000000000 F F F Al
   0.8333350000000000    0.6775430000000000    0.5291620000000000 F F F Al
   0.1666670000000000    0.6775430000000000    0.5291620000000000 F F F Al
   0.5000010000000000    0.7879280000000000    0.5763530000000000 F F F Al
   0.8333350000000000    0.8983139999999999    0.6235420000000000 F F F Al
   0.1666670000000000    0.8983139999999999    0.6235420000000000 F F F Al
   0.8333350000000000    0.9004900000000000    0.4824330000000000 F F F Al
   0.1666670000000000    0.9004900000000000    0.4824330000000000 F F F Al
   0.5000010000000000    0.0065260000000000    0.8104600000000000 F F F Al
   0.5000010000000000    0.0087010000000000    0.6693510000000000 F F F Al
   0.8333350000000000    0.1190870000000000    0.7165410000000000 F F F Al
   0.1666670000000000    0.1190870000000000    0.7165410000000000 F F F Al
   0.5000010000000000    0.2294730000000000    0.7637300000000000 F F F Al
   0.8333350000000000    0.3398590000000000    0.8109200000000000 F F F Al
   0.1666670000000000    0.3398590000000000    0.8109200000000000 F F F Al
   0.5000010000000000    0.0108770000000000    0.5282410000000000 F F F Al
   0.8333350000000000    0.1212620000000000    0.5754320000000001 F F F Al
   0.1666670000000000    0.1212620000000000    0.5754320000000001 F F F Al
   0.5000010000000000    0.2316480000000000    0.6226210000000000 F F F Al
   0.8333350000000000    0.3420340000000000    0.6698110000000000 F F F Al
   0.1666670000000000    0.3420340000000000    0.6698110000000000 F F F Al
   0.5000010000000000    0.4524200000000000    0.7170010000000000 F F F Al
   0.8333350000000000    0.5628060000000000    0.7641910000000000 F F F Al
   0.1666670000000000    0.5628060000000000    0.7641910000000000 F F F Al
   0.5000010000000000    0.6731920000000000    0.8113810000000000 F F F Al
   0.5000010000000000    0.2338240000000000    0.4815130000000000 F F F Al
   0.8333350000000000    0.3442100000000000    0.5287020000000000 F F F Al
   0.1666670000000000    0.3442100000000000    0.5287020000000000 F F F Al
   0.5000010000000000    0.4545950000000000    0.5758920000000000 F F F Al
   0.8333350000000000    0.5649810000000000    0.6230810000000000 F F F Al
   0.1666670000000000    0.5649810000000000    0.6230810000000000 F F F Al
   0.5000010000000000    0.6753670000000001    0.6702720000000000 F F F Al
   0.8333350000000000    0.7857530000000000    0.7174620000000000 F F F Al
   0.1666670000000000    0.7857530000000000    0.7174620000000000 F F F Al
   0.5000010000000000    0.8961390000000000    0.7646510000000000 F F F Al
   0.8333350000000000    0.5671570000000000    0.4819730000000000 F F F Al
   0.1666670000000000    0.5671570000000000    0.4819730000000000 F F F Al
   0.5000010000000000    0.6775430000000000    0.5291620000000000 F F F Al
   0.8333350000000000    0.7879280000000000    0.5763530000000000 F F F Al
   0.1666670000000000    0.7879280000000000    0.5763530000000000 F F F Al
   0.5000010000000000    0.8983139999999999    0.6235420000000000 F F F Al
   0.5000010000000000    0.9004900000000000    0.4824330000000000 F F F Al
   0.6666680000000000    0.0628070000000000    0.7635000000000000 F F F Al
   0.0000000000000000    0.0628070000000000    0.7635000000000000 F F F Al
   0.3333340000000000    0.1731920000000000    0.8106910000000001 F F F Al
   0.6666680000000000    0.0649820000000000    0.6223910000000000 F F F Al
   0.0000000000000000    0.0649820000000000    0.6223910000000000 F F F Al
   0.3333340000000000    0.1753680000000000    0.6695810000000000 F F F Al
   0.6666680000000000    0.2857540000000000    0.7167710000000000 F F F Al
   0.0000000000000000    0.2857540000000000    0.7167710000000000 F F F Al
   0.3333340000000000    0.3961400000000000    0.7639610000000000 F F F Al
   0.6666680000000000    0.5065250000000000    0.8111510000000000 F F F Al
   0.0000000000000000    0.5065250000000000    0.8111510000000000 F F F Al
   0.6666680000000000    0.0671570000000000    0.4812820000000000 F F F Al
   0.0000000000000000    0.0671570000000000    0.4812820000000000 F F F Al
   0.3333340000000000    0.1775430000000000    0.5284720000000001 F F F Al
   0.6666680000000000    0.2879290000000000    0.5756610000000000 F F F Al
   0.0000000000000000    0.2879290000000000    0.5756610000000000 F F F Al
   0.3333340000000000    0.3983150000000000    0.6228520000000000 F F F Al
   0.6666680000000000    0.5087010000000000    0.6700420000000000 F F F Al
   0.0000000000000000    0.5087010000000000    0.6700420000000000 F F F Al
   0.3333340000000000    0.6190870000000001    0.7172310000000000 F F F Al
   0.6666680000000000    0.7294730000000000    0.7644210000000000 F F F Al
   0.0000000000000000    0.7294730000000000    0.7644210000000000 F F F Al
   0.3333340000000000    0.8398590000000000    0.8116120000000000 F F F Al
   0.3333340000000000    0.4004900000000000    0.4817420000000000 F F F Al
   0.6666680000000000    0.5108760000000000    0.5289330000000000 F F F Al
   0.0000000000000000    0.5108760000000000    0.5289330000000000 F F F Al
   0.3333340000000000    0.6212620000000000    0.5761220000000000 F F F Al
   0.6666680000000000    0.7316480000000000    0.6233120000000000 F F F Al
   0.0000000000000000    0.7316480000000000    0.6233120000000000 F F F Al
   0.3333340000000000    0.8420339999999999    0.6705020000000000 F F F Al
   0.6666680000000000    0.9524200000000000    0.7176920000000000 F F F Al
   0.0000000000000000    0.9524200000000000    0.7176920000000000 F F F Al
   0.6666680000000000    0.7338230000000000    0.4822030000000000 F F F Al
   0.0000000000000000    0.7338230000000000    0.4822030000000000 F F F Al
   0.3333340000000000    0.8442090000000000    0.5293930000000000 F F F Al
   0.6666680000000000    0.9545950000000000    0.5765820000000000 F F F Al
   0.0000000000000000    0.9545950000000000    0.5765820000000000 F F F Al
   0.3333340000000000    0.0628070000000000    0.7635000000000000 F F F Al
   0.6666680000000000    0.1731920000000000    0.8106910000000001 F F F Al
   0.0000000000000000    0.1731920000000000    0.8106910000000001 F F F Al
   0.3333340000000000    0.0649820000000000    0.6223910000000000 F F F Al
   0.6666680000000000    0.1753680000000000    0.6695810000000000 F F F Al
   0.0000000000000000    0.1753680000000000    0.6695810000000000 F F F Al
   0.3333340000000000    0.2857540000000000    0.7167710000000000 F F F Al
   0.6666680000000000    0.3961400000000000    0.7639610000000000 F F F Al
   0.0000000000000000    0.3961400000000000    0.7639610000000000 F F F Al
   0.3333340000000000    0.5065250000000000    0.8111510000000000 F F F Al
   0.3333340000000000    0.0671570000000000    0.4812820000000000 F F F Al
   0.6666680000000000    0.1775430000000000    0.5284720000000001 F F F Al
   0.0000000000000000    0.1775430000000000    0.5284720000000001 F F F Al
   0.3333340000000000    0.2879290000000000    0.5756610000000000 F F F Al
   0.6666680000000000    0.3983150000000000    0.6228520000000000 F F F Al
   0.0000000000000000    0.3983150000000000    0.6228520000000000 F F F Al
   0.3333340000000000    0.5087010000000000    0.6700420000000000 F F F Al
   0.6666680000000000    0.6190870000000001    0.7172310000000000 F F F Al
   0.0000000000000000    0.6190870000000001    0.7172310000000000 F F F Al
   0.3333340000000000    0.7294730000000000    0.7644210000000000 F F F Al
   0.6666680000000000    0.8398590000000000    0.8116120000000000 F F F Al
   0.0000000000000000    0.8398590000000000    0.8116120000000000 F F F Al
   0.6666680000000000    0.4004900000000000    0.4817420000000000 F F F Al
   0.0000000000000000    0.4004900000000000    0.4817420000000000 F F F Al
   0.3333340000000000    0.5108760000000000    0.5289330000000000 F F F Al
   0.6666680000000000    0.6212620000000000    0.5761220000000000 F F F Al
   0.0000000000000000    0.6212620000000000    0.5761220000000000 F F F Al
   0.3333340000000000    0.7316480000000000    0.6233120000000000 F F F Al
   0.6666680000000000    0.8420339999999999    0.6705020000000000 F F F Al
   0.0000000000000000    0.8420339999999999    0.6705020000000000 F F F Al
   0.3333340000000000    0.9524200000000000    0.7176920000000000 F F F Al
   0.3333340000000000    0.7338230000000000    0.4822030000000000 F F F Al
   0.6666680000000000    0.8442090000000000    0.5293930000000000 F F F Al
   0.0000000000000000    0.8442090000000000    0.5293930000000000 F F F Al
   0.3333340000000000    0.9545950000000000    0.5765820000000000 F F F Al
   0.6420820175619352    0.5201619401826481    0.4228990187650130 F F F Al
   0.1035178813010885    0.7766864357002526    0.4235640124347306 F F F Al
   0.1371393940433855    0.3473997030791867    0.4248831536454527 F F F Al
   0.3096100789441342    0.1234593262027075    0.4263737131779827 F F F Al
   0.9626397443753224    0.6231266648523954    0.4281306767736210 F F F Al
   0.7433216431247549    0.3208320523811322    0.4282432580970701 F F F Al
   0.0085482087331068    0.1879525619709264    0.4286368967293565 F F F Al
   0.9161060905810542    0.4675045162188582    0.4296323431835213 F F F Al
   0.3469270000000000    0.0646180000000000    0.1784310000000000 F F F O
   0.3469270000000000    0.3979510000000000    0.1784310000000000 F F F O
   0.3469270000000000    0.7312840000000000    0.1784310000000000 F F F O
   0.8469270000000000    0.2312850000000000    0.1784310000000000 F F F O
   0.8469270000000000    0.5646180000000000    0.1784310000000000 F F F O
   0.8469270000000000    0.8979510000000001    0.1784310000000000 F F F O
   0.0271870000000000    0.2823090000000000    0.1343360000000000 F F F O
   0.0271870000000000    0.6156420000000000    0.1343360000000000 F F F O
   0.0271870000000000    0.9489750000000000    0.1343360000000000 F F F O
   0.5271870000000000    0.1156420000000000    0.1343360000000000 F F F O
   0.5271870000000000    0.4489760000000000    0.1343360000000000 F F F O
   0.5271870000000000    0.7823090000000000    0.1343360000000000 F F F O
   0.0000000000000000    0.0510240000000000    0.1784310000000000 F F F O
   0.0000000000000000    0.3843570000000000    0.1784310000000000 F F F O
   0.0000000000000000    0.7176910000000000    0.1784310000000000 F F F O
   0.5000000000000000    0.2176910000000000    0.1784310000000000 F F F O
   0.5000000000000000    0.5510240000000000    0.1784310000000000 F F F O
   0.5000000000000000    0.8843569999999999    0.1784310000000000 F F F O
   0.1938540000000000    0.2176910000000000    0.1784310000000000 F F F O
   0.1938540000000000    0.5510240000000000    0.1784310000000000 F F F O
   0.1938540000000000    0.8843569999999999    0.1784310000000000 F F F O
   0.6938540000000000    0.0510250000000000    0.1784310000000000 F F F O
   0.6938540000000000    0.3843580000000000    0.1784310000000000 F F F O
   0.6938540000000000    0.7176910000000000    0.1784310000000000 F F F O
   0.3333340000000000    0.2823090000000000    0.1343360000000000 F F F O
   0.3333340000000000    0.6156420000000000    0.1343360000000000 F F F O
   0.3333340000000000    0.9489750000000000    0.1343360000000000 F F F O
   0.8333340000000000    0.1156420000000000    0.1343360000000000 F F F O
   0.8333340000000000    0.4489760000000000    0.1343360000000000 F F F O
   0.8333340000000000    0.7823090000000000    0.1343360000000000 F F F O
   0.1802610000000000    0.1020490000000000    0.1343360000000000 F F F O
   0.1802610000000000    0.4353820000000000    0.1343360000000000 F F F O
   0.1802610000000000    0.7687150000000000    0.1343360000000000 F F F O
   0.6802610000000000    0.2687150000000000    0.1343360000000000 F F F O
   0.6802610000000000    0.6020489999999999    0.1343360000000000 F F F O
   0.6802610000000000    0.9353820000000000    0.1343360000000000 F F F O
   0.1802610000000000    0.2312850000000000    0.2666210000000000 F F F O
   0.1802610000000000    0.5646180000000000    0.2666210000000000 F F F O
   0.1802610000000000    0.8979510000000001    0.2666210000000000 F F F O
   0.6802610000000000    0.0646180000000000    0.2666210000000000 F F F O
   0.6802610000000000    0.3979510000000000    0.2666210000000000 F F F O
   0.6802610000000000    0.7312840000000000    0.2666210000000000 F F F O
   0.3605210000000000    0.2823090000000000    0.2225260000000000 F F F O
   0.3605210000000000    0.6156420000000000    0.2225260000000000 F F F O
   0.3605210000000000    0.9489750000000000    0.2225260000000000 F F F O
   0.8605210000000000    0.1156430000000000    0.2225260000000000 F F F O
   0.8605210000000000    0.4489760000000000    0.2225260000000000 F F F O
   0.8605210000000000    0.7823090000000000    0.2225260000000000 F F F O
   0.3333340000000000    0.0510250000000000    0.2666210000000000 F F F O
   0.3333340000000000    0.3843580000000000    0.2666210000000000 F F F O
   0.3333340000000000    0.7176910000000000    0.2666210000000000 F F F O
   0.8333340000000000    0.2176910000000000    0.2666210000000000 F F F O
   0.8333340000000000    0.5510240000000000    0.2666210000000000 F F F O
   0.8333340000000000    0.8843569999999999    0.2666210000000000 F F F O
   0.0271870000000000    0.0510250000000000    0.2666210000000000 F F F O
   0.0271870000000000    0.3843580000000000    0.2666210000000000 F F F O
   0.0271870000000000    0.7176910000000000    0.2666210000000000 F F F O
   0.5271870000000000    0.2176910000000000    0.2666210000000000 F F F O
   0.5271870000000000    0.5510240000000000    0.2666210000000000 F F F O
   0.5271870000000000    0.8843569999999999    0.2666210000000000 F F F O
   0.1666670000000000    0.1156420000000000    0.2225260000000000 F F F O
   0.1666670000000000    0.4489760000000000    0.2225260000000000 F F F O
   0.1666670000000000    0.7823090000000000    0.2225260000000000 F F F O
   0.6666670000000000    0.2823090000000000    0.2225260000000000 F F F O
   0.6666670000000000    0.6156420000000000    0.2225260000000000 F F F O
   0.6666670000000000    0.9489750000000000    0.2225260000000000 F F F O
   0.0135940000000000    0.2687150000000000    0.2225260000000000 F F F O
   0.0135940000000000    0.6020480000000000    0.2225260000000000 F F F O
   0.0135940000000000    0.9353820000000000    0.2225260000000000 F F F O
   0.5135940000000000    0.1020490000000000    0.2225260000000000 F F F O
   0.5135940000000000    0.4353820000000000    0.2225260000000000 F F F O
   0.5135940000000000    0.7687150000000000    0.2225260000000000 F F F O
   0.0135940000000000    0.0646180000000000    0.0902400000000000 F F F O
   0.0135940000000000    0.0646180000000000    0.3548120000000000 F F F O
   0.0135940000000000    0.3979510000000000    0.0902400000000000 F F F O
   0.0135940000000000    0.3979510000000000    0.3548120000000000 F F F O
   0.0135940000000000    0.7312840000000000    0.0902400000000000 F F F O
   0.0135940000000000    0.7312840000000000    0.3548120000000000 F F F O
   0.5135940000000000    0.2312850000000000    0.0902400000000000 F F F O
   0.5135940000000000    0.2312850000000000    0.3548120000000000 F F F O
   0.5135940000000000    0.5646180000000000    0.0902400000000000 F F F O
   0.5135940000000000    0.5646180000000000    0.3548120000000000 F F F O
   0.5135940000000000    0.8979510000000001    0.0902400000000000 F F F O
   0.5135940000000000    0.8979510000000001    0.3548120000000000 F F F O
   0.1938540000000000    0.1156420000000000    0.3107170000000000 F F F O
   0.1938540000000000    0.4489760000000000    0.3107170000000000 F F F O
   0.1938540000000000    0.7823090000000000    0.3107170000000000 F F F O
   0.6938540000000000    0.2823090000000000    0.3107170000000000 F F F O
   0.6938540000000000    0.6156420000000000    0.3107170000000000 F F F O
   0.6938540000000000    0.9489750000000000    0.3107170000000000 F F F O
   0.1666670000000000    0.2176910000000000    0.0902400000000000 F F F O
   0.1666670000000000    0.2176910000000000    0.3548120000000000 F F F O
   0.1666670000000000    0.5510240000000000    0.0902400000000000 F F F O
   0.1666670000000000    0.5510250000000000    0.3548120000000000 F F F O
   0.1666670000000000    0.8843569999999999    0.0902400000000000 F F F O
   0.1666670000000000    0.8843569999999999    0.3548120000000000 F F F O
   0.6666670000000000    0.0510250000000000    0.0902400000000000 F F F O
   0.6666670000000000    0.0510250000000000    0.3548120000000000 F F F O
   0.6666670000000000    0.3843580000000000    0.0902400000000000 F F F O
   0.6666670000000000    0.3843580000000000    0.3548120000000000 F F F O
   0.6666670000000000    0.7176910000000000    0.0902400000000000 F F F O
   0.6666670000000000    0.7176910000000000    0.3548120000000000 F F F O
   0.3605210000000000    0.0510240000000000    0.0902400000000000 F F F O
   0.3605210000000000    0.0510250000000000    0.3548120000000000 F F F O
   0.3605210000000000    0.3843570000000000    0.0902400000000000 F F F O
   0.3605210000000000    0.3843580000000000    0.3548120000000000 F F F O
   0.3605210000000000    0.7176910000000000    0.0902400000000000 F F F O
   0.3605210000000000    0.7176910000000000    0.3548120000000000 F F F O
   0.8605210000000000    0.2176910000000000    0.0902400000000000 F F F O
   0.8605210000000000    0.2176910000000000    0.3548120000000000 F F F O
   0.8605210000000000    0.5510240000000000    0.0902400000000000 F F F O
   0.8605210000000000    0.5510250000000000    0.3548120000000000 F F F O
   0.8605210000000000    0.8843569999999999    0.0902400000000000 F F F O
   0.8605210000000000    0.8843569999999999    0.3548120000000000 F F F O
   0.0000000000000000    0.2823090000000000    0.3107170000000000 F F F O
   0.0000000000000000    0.6156420000000000    0.3107170000000000 F F F O
   0.0000000000000000    0.9489750000000000    0.3107170000000000 F F F O
   0.5000000000000000    0.1156430000000000    0.3107170000000000 F F F O
   0.5000000000000000    0.4489760000000000    0.3107170000000000 F F F O
   0.5000000000000000    0.7823090000000000    0.3107170000000000 F F F O
   0.3469270000000000    0.2687150000000000    0.3107170000000000 F F F O
   0.3469270000000000    0.6020480000000000    0.3107170000000000 F F F O
   0.3469270000000000    0.9353810000000000    0.3107170000000000 F F F O
   0.8469270000000000    0.1020490000000000    0.3107170000000000 F F F O
   0.8469270000000000    0.4353820000000000    0.3107170000000000 F F F O
   0.8469270000000000    0.7687150000000000    0.3107170000000000 F F F O
   0.9682661548768943    0.0895989034044549    0.4104346200431281 F F F O
   0.6237058324840568    0.1040310339629080    0.4285404268379817 F F F Al
   0.2157061938989652    0.2182919355951141    0.4204036564673358 F F F O
   0.2647979339798803    0.7219551223418176    0.4137805569519317 F F F O
   0.3573351121629679    0.0118514970542978    0.4269133749297619 F F F O
   0.1289690697653748    0.9036187658906176    0.4021139514474520 F F F O
   0.8815458643186035    0.9593109441887171    0.4147578342040852 F F F O
   0.9902747064582692    0.0083625152515253    0.4339708505409478 F F F O
   0.5560744613566050    0.9602507603188725    0.4106633350244597 F F F O
   0.8255493467675019    0.1735948418343329    0.4340047890980859 F F F O
   0.3218646110795232    0.9027742115381532    0.4266971718554427 F F F O
   0.9394833111947771    0.9061181143606236    0.4325906688240944 F F F O
   0.9259015362330626    0.8108263310963182    0.4072441924001631 F F F O
   0.3669792482237628    0.6773482442642593    0.4321703449638867 F F F O
   0.4156504162929998    0.4023151177935647    0.4274360982691990 F F F O
   0.4320024777180645    0.0456619213656562    0.4052605727023788 F F F O
