Pt 
 1.0000000000000000
    43.7862129211000024    0.0000000000000000    0.0000000000000000
     0.0000000000000000   32.8396596908250018    0.0000000000000000
     0.0000000000000000    0.0000000000000000   43.7862129211000024
 Pt 
 491
Direct
  0.5214278520882237  0.2330739924874888  0.2119060177047619
  0.5000000000000000  0.3012548410577475  0.1798955701991983
  0.4660741004155043  0.2288644563459503  0.1798955815129069
  0.4107203431221422  0.2246549082112006  0.2119060283113637
  0.4660740947948617  0.2288644443527391  0.2439164645032187
  0.4446462423319284  0.2970452921234504  0.2119060177047619
  0.4107203483680753  0.2246549194048645  0.2759268907955788
  0.3892924841905182  0.2928357446952599  0.2439164645032187
  0.3553665958473077  0.2204453839698850  0.2439164546037238
  0.3000128381792361  0.2162358350355879  0.2759269021092874
  0.3553665898519556  0.2204453711771264  0.3079373383011424
  0.3339387377637318  0.2886262197473851  0.2759268907955788
  0.3000128325585936  0.2162358230423768  0.3399477850995992
  0.2785849792476121  0.2844166715196471  0.3079373383011424
  0.2446590800378259  0.2120262876073974  0.3079373489077441
  0.2446590744171834  0.2120262756141863  0.3719582318980559
  0.2232312719890877  0.2802070816979154  0.3399477850995992
  0.6321353433043108  0.2414931093401880  0.2759269120087823
  0.5553537576680715  0.3054643899920444  0.2119060177047619
  0.6107075158094818  0.3096739374202350  0.2439164645032187
  0.5892796568778577  0.3778547739042942  0.2119060283113637
  0.5767816106043435  0.2372835407152268  0.2439164652103254
  0.5214278524629332  0.2330739932870361  0.2759269120087823
  0.5767816106043435  0.2372835407152268  0.3079373588072390
  0.5553537572933620  0.3054643891924971  0.2759269120087823
  0.5214278633295090  0.2330740164739112  0.3399477850995992
  0.5339258995844957  0.3736452257695444  0.1798955815129068
  0.4785721479117761  0.3694356896280060  0.2119060177047619
  0.5339259052051383  0.3736452377627558  0.2439164645032187
  0.5124980471215623  0.4418260735402558  0.2119060283113637
  0.5000000000000000  0.3012548410577475  0.2439164652103254
  0.4446462427066379  0.2970452929229978  0.2759269120087823
  0.5000000000000000  0.3012548410577475  0.3079373588072390
  0.4785721475370666  0.3694356888284587  0.2759269120087823
  0.4660741060361469  0.2288644683391616  0.3079373383011423
  0.4107203483680753  0.2246549194048645  0.3399477858067059
  0.4660741056614374  0.2288644675396141  0.3719582326051628
  0.4446462535732136  0.2970453161098727  0.3399477850995992
  0.4107203483680753  0.2246549194048645  0.4039686794036195
  0.4571442946007947  0.4376165381052765  0.2439164645032187
  0.4232183893956565  0.3652261414002680  0.2439164652103254
  0.3678646321022944  0.3610165932655184  0.2759269120087823
  0.4232183893956565  0.3652261414002680  0.3079373588072390
  0.4017905369327231  0.4334069891709793  0.2759269120087823
  0.3892924954318034  0.2928357686816822  0.3079373383011423
  0.3339387377637318  0.2886262197473851  0.3399477858067059
  0.3892924950570938  0.2928357678821347  0.3719582326051628
  0.3678646429688701  0.3610166164523934  0.3399477850995992
  0.3553665902266651  0.2204453719766739  0.3719582326051628
  0.3000128329333031  0.2162358238419242  0.4039686794036195
  0.3553665902266651  0.2204453719766739  0.4359791262020762
  0.3339387377637318  0.2886262197473851  0.4039686794036195
  0.3000128325585936  0.2162358230423768  0.4679895737076398
  0.3464367787913129  0.4291974417427887  0.3079373588072390
  0.3125108848274599  0.3568070690242029  0.3079373383011423
  0.2571571771942259  0.3525974784029237  0.3399477858067059
  0.3125108844527503  0.3568070682246554  0.3719582326051628
  0.2910830823993641  0.4249878751079320  0.3399477850995992
  0.2785849796223216  0.2844166723191945  0.3719582326051628
  0.2232312723637972  0.2802070824974628  0.4039686794036195
  0.2785849796223216  0.2844166723191945  0.4359791262020762
  0.2571571771942259  0.3525974784029237  0.4039686794036195
  0.2446590744171833  0.2120262756141862  0.4359791269091831
  0.2446590744171834  0.2120262756141863  0.5000000205060966
  0.2232312719890877  0.2802070816979154  0.4679895737076398
  0.2357293247312926  0.4207783261736349  0.3719582326051628
  0.2018034199008639  0.3483879302681741  0.3719582326051628
  0.2018034199008639  0.3483879302681741  0.4359791262020762
  0.7428428482472169  0.2499121825158007  0.3399477858067059
  0.6660612376428734  0.3138834828583213  0.2759268907955788
  0.7214149953109450  0.3180930317926184  0.3079373383011424
  0.6999871372273689  0.3862738675701184  0.2759269021092873
  0.6874890897310972  0.2457026342880626  0.3079373383011423
  0.6321353324377351  0.2414930861533130  0.3399477850995992
  0.6874890901058068  0.2457026350876101  0.3719582326051628
  0.6660612376428734  0.3138834828583213  0.3399477858067059
  0.6321353436790202  0.2414931101397355  0.4039686588975229
  0.6446334041526922  0.3820642981456098  0.2439164546037237
  0.5892796516319246  0.3778547627106304  0.2759268907955788
  0.6446334101480443  0.3820643109383685  0.3079373383011424
  0.6232055512164203  0.4502451474224275  0.2759269021092873
  0.6107075045681966  0.3096739134338127  0.3079373383011423
  0.5553537464267864  0.3054643660056222  0.3399477850995992
  0.6107075049429060  0.3096739142333602  0.3719582326051628
  0.5892796516319246  0.3778547627106304  0.3399477858067059
  0.5767816106043435  0.2372835407152268  0.3719582113919593
  0.5214278520882237  0.2330739924874888  0.4039686588975229
  0.5767816106043435  0.2372835407152268  0.4359791064030865
  0.5553537576680715  0.3054643899920445  0.4039686588975229
  0.5214278524629333  0.2330739932870362  0.4679895532015432
  0.5678517935483487  0.4460355984881305  0.2439164546037237
  0.5124980418756292  0.4418260623465920  0.2759268907955788
  0.5678517995437009  0.4460356112808891  0.3079373383011424
  0.5464239414601250  0.5142164470583891  0.2759269021092873
  0.5339258939638530  0.3736452137763333  0.3079373383011423
  0.4785721366704910  0.3694356656415837  0.3399477850995992
  0.5339258943385626  0.3736452145758808  0.3719582326051628
  0.5124980418756292  0.4418260623465920  0.3399477858067059
  0.5000000000000000  0.3012548410577475  0.3719582113919593
  0.4446462423319284  0.2970452921234504  0.4039686588975229
  0.5000000000000000  0.3012548410577475  0.4359791064030865
  0.4785721479117762  0.3694356896280062  0.4039686588975229
  0.4660740947948617  0.2288644443527391  0.4359791056959796
  0.4107203375014997  0.2246548962179895  0.4679895524944364
  0.4660740951695713  0.2288644451522866  0.5000000000000000
  0.4446462427066379  0.2970452929229978  0.4679895532015432
  0.4107203375014997  0.2246548962179895  0.5320104475055636
  0.4910701829440052  0.5100068988306511  0.2439164546037237
  0.4357164312712857  0.5057973626891127  0.2759268907955788
  0.4910701889393573  0.5100069116234098  0.3079373383011424
  0.4696423308557814  0.5781877474009098  0.2759269021092873
  0.4571442833595095  0.4376165141188540  0.3079373383011423
  0.4017905260661475  0.4334069659841044  0.3399477850995992
  0.4571442837342191  0.4376165149184015  0.3719582326051628
  0.4357164312712857  0.5057973626891127  0.3399477858067059
  0.4232183893956565  0.3652261414002680  0.3719582113919593
  0.3678646317275848  0.3610165924659710  0.4039686588975229
  0.4232183893956565  0.3652261414002680  0.4359791064030865
  0.4017905373074327  0.4334069899705268  0.4039686588975229
  0.3892924841905182  0.2928357446952599  0.4359791056959796
  0.3339387268971562  0.2886261965605101  0.4679895524944364
  0.3892924845652278  0.2928357454948072  0.5000000000000000
  0.3678646321022944  0.3610165932655184  0.4679895532015432
  0.3553665789853800  0.2204453479902514  0.5000000000000000
  0.3000128216920179  0.2162357998555018  0.5320104467984568
  0.3553665793600895  0.2204453487897990  0.5640208943040204
  0.3339387268971562  0.2886261965605101  0.5320104475055636
  0.3000128216920179  0.2162357998555018  0.5960313418095839
  0.4142885783350138  0.5739782119659304  0.3079373383011424
  0.3803626727551660  0.5015878144613746  0.3079373383011423
  0.3250089654966416  0.4973782246396429  0.3399477850995992
  0.3803626731298756  0.5015878152609222  0.3719582326051628
  0.3589348707017798  0.5697686213446512  0.3399477858067059
  0.3464367787913129  0.4291974417427887  0.3719582113919593
  0.2910830711580790  0.4249878511215096  0.4039686588975229
  0.3464367787913129  0.4291974417427887  0.4359791064030865
  0.3250089767379268  0.4973782486260654  0.4039686588975229
  0.3125108735861747  0.3568070450377804  0.4359791056959796
  0.2571571663276503  0.3525974552160488  0.4679895524944364
  0.3125108739608842  0.3568070458373279  0.5000000000000000
  0.2910830715327885  0.4249878519210570  0.4679895532015432
  0.2785849683810365  0.2844166483327721  0.5000000000000000
  0.2232312611225120  0.2802070585110404  0.5320104467984568
  0.2785849687557460  0.2844166491323196  0.5640208943040204
  0.2571571663276503  0.3525974552160488  0.5320104475055636
  0.2446590631758982  0.2120262516277638  0.5640208943040204
  0.2446590856584685  0.2120262996006086  0.6280417468887406
  0.2232312611225120  0.2802070585110404  0.5960313418095839
  0.3035811134084178  0.5655590732099015  0.3719582326051628
  0.2696552190698552  0.4931686996917682  0.3719582113919593
  0.2696552190698552  0.4931686996917682  0.4359791064030865
  0.2357293138647170  0.4207783029867599  0.4359791056959796
  0.2357293142394265  0.4207783037863074  0.5000000000000000
  0.2018034086595787  0.3483879062817516  0.5000000000000000
  0.2018034090342883  0.3483879070812991  0.5640208943040204
  0.7767687534523551  0.3223025792208090  0.3399477850995992
  0.7981965928198576  0.2541217412489356  0.3719582326051628
  0.7428428482472169  0.2499121825158007  0.4039686794036195
  0.7981965928198576  0.2541217412489356  0.4359791262020762
  0.7767687530776456  0.3223025784212616  0.4039686794036195
  0.7428428591137924  0.2499122057026756  0.4679895524944364
  0.7553408945207311  0.3904834157048681  0.3079373489077441
  0.6999871428480117  0.3862738795633296  0.3399477850995992
  0.7553409001413736  0.3904834276980793  0.3719582318980559
  0.7339130420577978  0.4586642634755793  0.3399477957062008
  0.7214149949362355  0.3180930309930710  0.3719582326051628
  0.6660612376428734  0.3138834828583213  0.4039686794036195
  0.7214149949362355  0.3180930309930710  0.4359791262020762
  0.6999871424733021  0.3862738787637822  0.4039686794036195
  0.6874891009723824  0.2457026582744850  0.4359791056959796
  0.6321353433043108  0.2414931093401880  0.4679895532015432
  0.6874891005976729  0.2457026574749376  0.5000000000000000
  0.6660612485094490  0.3138835060451963  0.4679895524944364
  0.6321353433043108  0.2414931093401880  0.5320104467984568
  0.6785593093578305  0.4544546948506181  0.3079373489077441
  0.6232055568370629  0.4502451594156388  0.3399477850995992
  0.6785593149784731  0.4544547068438293  0.3719582318980559
  0.6571314560468490  0.5226355433278883  0.3399477957062008
  0.6446334097733348  0.3820643101388210  0.3719582326051628
  0.5892796516319246  0.3778547627106304  0.4039686794036195
  0.6446334097733348  0.3820643101388210  0.4359791262020762
  0.6232055564623533  0.4502451586160912  0.4039686794036195
  0.6107075158094818  0.3096739374202350  0.4359791056959796
  0.5553537572933620  0.3054643891924971  0.4679895532015432
  0.6107075154347722  0.3096739366206877  0.5000000000000000
  0.5892796624985003  0.3778547858975054  0.4679895524944364
  0.5767816106043435  0.2372835407152268  0.5000000000000000
  0.5214278524629333  0.2330739932870362  0.5320104467984568
  0.5767816106043435  0.2372835407152268  0.5640208935969135
  0.5553537572933620  0.3054643891924971  0.5320104467984568
  0.5214278520882237  0.2330739924874888  0.5960313411024771
  0.6017776987534870  0.5184259951931387  0.3079373489077441
  0.5464239470807675  0.5142164590516004  0.3399477850995992
  0.6017777043741296  0.5184260071863500  0.3719582318980559
  0.5803498462905536  0.5866068429638499  0.3399477957062008
  0.5678517991689913  0.4460356104813416  0.3719582326051628
  0.5124980418756292  0.4418260623465920  0.4039686794036195
  0.5678517991689913  0.4460356104813416  0.4359791262020762
  0.5464239467060580  0.5142164582520529  0.4039686794036195
  0.5339259052051383  0.3736452377627558  0.4359791056959796
  0.4785721475370666  0.3694356888284587  0.4679895532015432
  0.5339259048304287  0.3736452369632083  0.5000000000000000
  0.5124980527422049  0.4418260855334670  0.4679895524944364
  0.5000000000000000  0.3012548410577475  0.5000000000000000
  0.4446462427066379  0.2970452929229978  0.5320104467984568
  0.5000000000000000  0.3012548410577475  0.5640208935969135
  0.4785721475370666  0.3694356888284587  0.5320104467984568
  0.4660740947948617  0.2288644443527391  0.5640208943040204
  0.4107203375014997  0.2246548962179895  0.5960313411024771
  0.4660740947948617  0.2288644443527391  0.6280417879009338
  0.4446462423319284  0.2970452921234504  0.5960313411024771
  0.4107203371267901  0.2246548954184421  0.6600522354064974
  0.5249960881491434  0.5823972955356594  0.3079373489077441
  0.4696423364764240  0.5781877593941210  0.3399477850995992
  0.5249960937697861  0.5823973075288706  0.3719582318980559
  0.5035682356862101  0.6505781433063705  0.3399477957062008
  0.4910701885646478  0.5100069108238623  0.3719582326051628
  0.4357164312712857  0.5057973626891127  0.4039686794036195
  0.4910701885646478  0.5100069108238623  0.4359791262020762
  0.4696423361017144  0.5781877585945735  0.4039686794036195
  0.4571442946007947  0.4376165381052765  0.4359791056959796
  0.4017905369327231  0.4334069891709793  0.4679895532015432
  0.4571442942260852  0.4376165373057289  0.5000000000000000
  0.4357164421378614  0.5057973858759877  0.4679895524944364
  0.4232183893956565  0.3652261414002680  0.5000000000000000
  0.3678646321022944  0.3610165932655184  0.5320104467984568
  0.4232183893956565  0.3652261414002680  0.5640208935969135
  0.4017905369327231  0.4334069891709793  0.5320104467984568
  0.3892924841905182  0.2928357446952599  0.5640208943040204
  0.3339387268971562  0.2886261965605101  0.5960313411024771
  0.3892924841905182  0.2928357446952599  0.6280417879009338
  0.3678646317275848  0.3610165924659710  0.5960313411024771
  0.3553665789853800  0.2204453479902514  0.6280417886080407
  0.3000128437998787  0.2162358470287992  0.6600521936871974
  0.3553666010932408  0.2204453951635488  0.6920626404856541
  0.3339387265224466  0.2886261957609627  0.6600522354064974
  0.3000128437998787  0.2162358470287991  0.7240730872841109
  0.4482144775447999  0.6463685958781801  0.3079373489077441
  0.3928607759069180  0.6421590180496596  0.3399477850995992
  0.4482144831654424  0.6463686078713913  0.3719582318980559
  0.4142885779603043  0.5739782111663830  0.3719582326051628
  0.3589348707017798  0.5697686213446512  0.4039686794036195
  0.4142885779603043  0.5739782111663830  0.4359791262020762
  0.3928607755322086  0.6421590172501123  0.4039686794036195
  0.3803626839964512  0.5015878384477971  0.4359791056959796
  0.3250089763632172  0.4973782478265178  0.4679895532015432
  0.3803626836217416  0.5015878376482495  0.5000000000000000
  0.3589348815683555  0.5697686445315262  0.4679895524944364
  0.3464367787913129  0.4291974417427887  0.5000000000000000
  0.2910830715327885  0.4249878519210570  0.5320104467984568
  0.3464367787913129  0.4291974417427887  0.5640208935969135
  0.3250089763632172  0.4973782478265178  0.5320104467984568
  0.3125108735861747  0.3568070450377804  0.5640208943040204
  0.2571571663276503  0.3525974552160488  0.5960313411024771
  0.3125108735861747  0.3568070450377804  0.6280417879009338
  0.2910830711580790  0.4249878511215096  0.5960313411024771
  0.2785849683810365  0.2844166483327721  0.6280417886080407
  0.2232312832303728  0.2802071056843378  0.6600521936871974
  0.2785849904888973  0.2844166955060695  0.6920626404856541
  0.2571571659529407  0.3525974544165012  0.6600522354064974
  0.2446590856584685  0.2120262996006086  0.6920626404856541
  0.3375070182388465  0.6379494691153625  0.3719582326051628
  0.3375070182388465  0.6379494691153625  0.4359791262020762
  0.3035811242749935  0.5655590963967765  0.4359791056959796
  0.3035811239002839  0.5655590955972291  0.5000000000000000
  0.2696552190698552  0.4931686996917682  0.5000000000000000
  0.2696552190698552  0.4931686996917682  0.5640208935969135
  0.2357293138647170  0.4207783029867599  0.5640208943040204
  0.2357293138647170  0.4207783029867599  0.6280417879009338
  0.2018034086595787  0.3483879062817516  0.6280417886080407
  0.7767687534523551  0.3223025792208090  0.4679895737076398
  0.7981966040611426  0.2541217652353581  0.5000000000000000
  0.7428428591137924  0.2499122057026756  0.5320104475055636
  0.7981966036864332  0.2541217644358105  0.5640208943040204
  0.7767687643189307  0.3223026024076839  0.5320104467984568
  0.7428428591137924  0.2499122057026756  0.5960313411024771
  0.7339130480531498  0.4586642762683379  0.4039686794036195
  0.7553409001413736  0.3904834276980793  0.4359791269091831
  0.6999871428480117  0.3862738795633296  0.4679895737076398
  0.7553409001413736  0.3904834276980793  0.5000000205060966
  0.7339130476784403  0.4586642754687905  0.4679895737076398
  0.7214150061775206  0.3180930549794934  0.5000000000000000
  0.6660612485094490  0.3138835060451963  0.5320104475055636
  0.7214150058028110  0.3180930541799458  0.5640208943040204
  0.6999871537145872  0.3862739027502046  0.5320104467984568
  0.6874891009723824  0.2457026582744850  0.5640208943040204
  0.6321353436790202  0.2414931101397355  0.5960313411024771
  0.6874891009723824  0.2457026582744850  0.6280417879009338
  0.6660612485094490  0.3138835060451963  0.5960313411024771
  0.6321353433043108  0.2414931093401880  0.6600522354064974
  0.7124852145629688  0.5268450915556265  0.3719582432117644
  0.6571314620422011  0.5226355561206470  0.4039686794036195
  0.7124852201836114  0.5268451035488376  0.4359791262020762
  0.6910573612519871  0.5950259400328967  0.4039686900102211
  0.6785593149784731  0.4544547068438293  0.4359791269091831
  0.6232055568370629  0.4502451594156388  0.4679895737076398
  0.6785593149784731  0.4544547068438293  0.5000000205060966
  0.6571314616674916  0.5226355553210996  0.4679895737076398
  0.6446334210146200  0.3820643341252435  0.5000000000000000
  0.5892796624985003  0.3778547858975054  0.5320104475055636
  0.6446334206399105  0.3820643333256959  0.5640208943040204
  0.6232055677036386  0.4502451826025137  0.5320104467984568
  0.6107075158094818  0.3096739374202350  0.5640208943040204
  0.5553537576680715  0.3054643899920445  0.5960313411024771
  0.6107075158094818  0.3096739374202350  0.6280417879009338
  0.5892796624985003  0.3778547858975054  0.5960313411024771
  0.5767816106043435  0.2372835407152268  0.6280417886080407
  0.5214278524629333  0.2330739932870362  0.6600522354064974
  0.5767816106043435  0.2372835407152268  0.6920626822049541
  0.5553537572933620  0.3054643891924971  0.6600522354064974
  0.5214278520882237  0.2330739924874888  0.7240731297105177
  0.6357036039586252  0.5908163918981472  0.3719582432117644
  0.5803498522859057  0.5866068557566086  0.4039686794036195
  0.6357036095792677  0.5908164038913583  0.4359791262020762
  0.6142757514956918  0.6589972396688584  0.4039686900102211
  0.6017777043741296  0.5184260071863500  0.4359791269091831
  0.5464239470807675  0.5142164590516004  0.4679895737076398
  0.6017777043741296  0.5184260071863500  0.5000000205060966
  0.5803498519111961  0.5866068549570612  0.4679895737076398
  0.5678518104102764  0.4460356344677641  0.5000000000000000
  0.5124980527422049  0.4418260855334670  0.5320104475055636
  0.5678518100355670  0.4460356336682166  0.5640208943040204
  0.5464239579473431  0.5142164822384753  0.5320104467984568
  0.5339259052051383  0.3736452377627558  0.5640208943040204
  0.4785721479117762  0.3694356896280062  0.5960313411024771
  0.5339259052051383  0.3736452377627558  0.6280417879009338
  0.5124980527422049  0.4418260855334670  0.5960313411024771
  0.5000000000000000  0.3012548410577475  0.6280417886080407
  0.4446462427066379  0.2970452929229978  0.6600522354064974
  0.5000000000000000  0.3012548410577475  0.6920626822049541
  0.4785721475370666  0.3694356888284587  0.6600522354064974
  0.4660740947948617  0.2288644443527391  0.6920626829120610
  0.4107203596093605  0.2246549433912868  0.7240730879912177
  0.4660741169027225  0.2288644915260364  0.7560835347896745
  0.4446462423319284  0.2970452921234504  0.7240731297105177
  0.4107203596093605  0.2246549433912868  0.7880939815881313
  0.5589219933542817  0.6547876922406677  0.3719582432117644
  0.5035682416815622  0.6505781560991292  0.4039686794036195
  0.5589219989749242  0.6547877042338789  0.4359791262020762
  0.5249960937697861  0.5823973075288706  0.4359791269091831
  0.4696423364764240  0.5781877593941210  0.4679895737076398
  0.5249960937697861  0.5823973075288706  0.5000000205060966
  0.5035682413068527  0.6505781552995819  0.4679895737076398
  0.4910701998059330  0.5100069348102847  0.5000000000000000
  0.4357164421378614  0.5057973858759877  0.5320104475055636
  0.4910701994312234  0.5100069340107373  0.5640208943040204
  0.4696423473429996  0.5781877825809959  0.5320104467984568
  0.4571442946007947  0.4376165381052765  0.5640208943040204
  0.4017905373074327  0.4334069899705268  0.5960313411024771
  0.4571442946007947  0.4376165381052765  0.6280417879009338
  0.4357164421378614  0.5057973858759877  0.5960313411024771
  0.4232183893956565  0.3652261414002680  0.6280417886080407
  0.3678646321022944  0.3610165932655184  0.6600522354064974
  0.4232183893956565  0.3652261414002680  0.6920626822049541
  0.4017905369327231  0.4334069891709793  0.6600522354064974
  0.3892924841905182  0.2928357446952599  0.6920626829120610
  0.3339387490050170  0.2886262437338075  0.7240730879912177
  0.3892925062983790  0.2928357918685571  0.7560835347896745
  0.3678646317275848  0.3610165924659710  0.7240731297105177
  0.3553666014679503  0.2204453959630963  0.7560835347896745
  0.4482144831654424  0.6463686078713913  0.4359791269091831
  0.3928607759069180  0.6421590180496596  0.4679895737076398
  0.4482144831654424  0.6463686078713913  0.5000000205060966
  0.4142885892015893  0.5739782351528053  0.5000000000000000
  0.3589348815683555  0.5697686445315262  0.5320104475055636
  0.4142885888268799  0.5739782343532579  0.5640208943040204
  0.3928607867734937  0.6421590412365344  0.5320104467984568
  0.3803626839964512  0.5015878384477971  0.5640208943040204
  0.3250089767379268  0.4973782486260654  0.5960313411024771
  0.3803626839964512  0.5015878384477971  0.6280417879009338
  0.3589348815683555  0.5697686445315262  0.5960313411024771
  0.3464367787913129  0.4291974417427887  0.6280417886080407
  0.2910830715327885  0.4249878519210570  0.6600522354064974
  0.3464367787913129  0.4291974417427887  0.6920626822049541
  0.3250089763632172  0.4973782478265178  0.6600522354064974
  0.3125108735861747  0.3568070450377804  0.6920626829120610
  0.3375070294801317  0.6379494931017848  0.5000000000000000
  0.3375070291054221  0.6379494923022373  0.5640208943040204
  0.3035811242749935  0.5655590963967765  0.5640208943040204
  0.3035811242749935  0.5655590963967765  0.6280417879009338
  0.2696552190698552  0.4931686996917682  0.6280417886080407
  0.7767687643189307  0.3223026024076839  0.5960313418095839
  0.7981966040611426  0.2541217652353581  0.6280417886080407
  0.7428428594885020  0.2499122065022231  0.6600522354064974
  0.7767687422110700  0.3223025552343866  0.6600521936871974
  0.7339130480531498  0.4586642762683379  0.5320104680116602
  0.7553409113826589  0.3904834516845016  0.5640208943040204
  0.6999871537145872  0.3862739027502046  0.5960313418095839
  0.7553408889000885  0.3904834037116568  0.6280417468887406
  0.7339130368118647  0.4586642522819156  0.5960312993831770
  0.7214150061775206  0.3180930549794934  0.6280417886080407
  0.6660612488841585  0.3138835068447438  0.6600522354064974
  0.7214149840696598  0.3180930078061960  0.6920626404856541
  0.6999871316067264  0.3862738555769073  0.6600521936871974
  0.6874891009723824  0.2457026582744850  0.6920626829120610
  0.6321353436790202  0.2414931101397355  0.7240731297105177
  0.6660612264015882  0.3138834588718990  0.7240730879912177
  0.6910573672473393  0.5950259528256554  0.4679895737076398
  0.7124852201836114  0.5268451035488376  0.5000000212132034
  0.6571314620422011  0.5226355561206470  0.5320104680116602
  0.7124851980757505  0.5268450563755404  0.5640208730908168
  0.6910573447647690  0.5950259048528106  0.5320104262923602
  0.6785593262197582  0.4544547308302517  0.5640208943040204
  0.6232055677036386  0.4502451826025137  0.5960313418095839
  0.6785593037371879  0.4544546828574069  0.6280417468887406
  0.6571314508009160  0.5226355321342246  0.5960312993831770
  0.6446334210146200  0.3820643341252435  0.6280417886080407
  0.5892796628732099  0.3778547866970529  0.6600522354064974
  0.6446333989067592  0.3820642869519461  0.6920626404856541
  0.6232055455957777  0.4502451354292163  0.6600521936871974
  0.6107075158094818  0.3096739374202350  0.6920626829120610
  0.5553537576680715  0.3054643899920445  0.7240731297105177
  0.6107074937016210  0.3096738902469378  0.7560835347896745
  0.5892796403906394  0.3778547387242081  0.7240730879912177
  0.5767816106043435  0.2372835407152268  0.7560835772160813
  0.5214278745707941  0.2330740404603335  0.7880939822952381
  0.5553537351855012  0.3054643420191998  0.7880939822952381
  0.6696295091637635  0.6632067886031555  0.4359791375157847
  0.6142757574910440  0.6589972524616170  0.4679895737076398
  0.6696294926765451  0.6632067534230693  0.4999999787867965
  0.6357036095792677  0.5908164038913583  0.5000000212132034
  0.5803498522859057  0.5866068557566086  0.5320104680116602
  0.6357035874714070  0.5908163567180610  0.5640208730908168
  0.6142757350084737  0.6589972044887722  0.5320104262923602
  0.6017777156154147  0.5184260311727724  0.5640208943040204
  0.5464239579473431  0.5142164822384753  0.5960313418095839
  0.6017776931328443  0.5184259831999276  0.6280417468887406
  0.5803498410446205  0.5866068317701862  0.5960312993831770
  0.5678518104102764  0.4460356344677641  0.6280417886080407
  0.5124980531169144  0.4418260863330145  0.6600522354064974
  0.5678517883024157  0.4460355872944667  0.6920626404856541
  0.5464239358394823  0.5142164350651780  0.6600521936871974
  0.5339259052051383  0.3736452377627558  0.6920626829120610
  0.4785721479117762  0.3694356896280062  0.7240731297105177
  0.5339258830972774  0.3736451905894584  0.7560835347896745
  0.5124980306343441  0.4418260383601696  0.7240730879912177
  0.5000000000000000  0.3012548410577475  0.7560835772160813
  0.4446462648144987  0.2970453400962951  0.7880939822952381
  0.5000000000000000  0.3012548410577475  0.8201043873743947
  0.4785721254292059  0.3694356416551614  0.7880939822952381
  0.4660741172774321  0.2288644923255839  0.8201044290936947
  0.5589219989749242  0.6547877042338789  0.5000000212132034
  0.5035682416815622  0.6505781560991292  0.5320104680116602
  0.5589219768670635  0.6547876570605815  0.5640208730908168
  0.5249961050110712  0.5823973315152930  0.5640208943040204
  0.4696423473429996  0.5781877825809959  0.5960313418095839
  0.5249960825285008  0.5823972835424482  0.6280417468887406
  0.5035682304402770  0.6505781321127070  0.5960312993831770
  0.4910701998059330  0.5100069348102847  0.6280417886080407
  0.4357164425125709  0.5057973866755351  0.6600522354064974
  0.4910701776980721  0.5100068876369873  0.6920626404856541
  0.4696423252351388  0.5781877354076985  0.6600521936871974
  0.4571442946007947  0.4376165381052765  0.6920626829120610
  0.4017905373074327  0.4334069899705268  0.7240731297105177
  0.4571442724929339  0.4376164909319791  0.7560835347896745
  0.4357164200300006  0.5057973387026903  0.7240730879912177
  0.4232183893956565  0.3652261414002680  0.7560835772160813
  0.4482144944067277  0.6463686318578137  0.5640208943040204
  0.3928607867734937  0.6421590412365344  0.5960313418095839
  0.4482144719241573  0.6463685838849688  0.6280417468887406
  0.4142885892015893  0.5739782351528053  0.6280417886080407
  0.3589348819430650  0.5697686453310736  0.6600522354064974
  0.4142885670937286  0.5739781879795081  0.6920626404856541
  0.3928607646656329  0.6421589940632372  0.6600521936871974
  0.3803626839964512  0.5015878384477971  0.6920626829120610
  0.3375070294801317  0.6379494931017848  0.6280417886080407
  0.7339130364371551  0.4586642514823681  0.6600521936871974
  0.7553408889000885  0.3904834037116568  0.6920626404856541
  0.6999871316067264  0.3862738555769073  0.7240730872841109
  0.6910573447647690  0.5950259048528106  0.5960313198892736
  0.7124852089423261  0.5268450795624152  0.6280417461816338
  0.6571314504262065  0.5226355313346772  0.6600521936871974
  0.6785593037371879  0.4544546828574069  0.6920626404856541
  0.6232055455957777  0.4502451354292163  0.7240730872841109
  0.6446333985320497  0.3820642861523986  0.7560835347896745
  0.5892796403906394  0.3778547387242081  0.7880939815881314
  0.6696294923018358  0.6632067526235220  0.5640208730908168
  0.6142757350084737  0.6589972044887722  0.5960313198892736
  0.6357035983379826  0.5908163799049359  0.6280417461816338
  0.5803498406699110  0.5866068309706388  0.6600521936871974
  0.6017776931328443  0.5184259831999276  0.6920626404856541
  0.5464239358394823  0.5142164350651780  0.7240730872841109
  0.5678517879277062  0.4460355864949193  0.7560835347896745
  0.5124980306343441  0.4418260383601696  0.7880939815881314
  0.5339258827225679  0.3736451897899110  0.8201044290936947
  0.5589219877336391  0.6547876802474566  0.6280417461816338
  0.5035682300655675  0.6505781313131594  0.6600521936871974
  0.5249960825285008  0.5823972835424482  0.6920626404856541
  0.4696423252351388  0.5781877354076985  0.7240730872841109
  0.4910701773233626  0.5100068868374399  0.7560835347896745
  0.4482144719241573  0.6463685838849688  0.6920626404856541
