LAMMPS (28 Mar 2023 - Update 1)
  using 1 OpenMP thread(s) per MPI task
# CdTe cluster
units metal
dimension 3
boundary p p p
atom_style  charge
read_data in.data
Reading data file ...
  orthogonal box = (0 0 0) to (8.4283 14.5982 49.476269)
  1 by 1 by 2 MPI processor grid
  reading atoms ...
  381 atoms
  read_data CPU = 0.004 seconds


mass 1 26.9815386
mass 2 15.9994

pair_style comb3 polar_off
pair_coeff * * /home/yuxin.chang/fantastx/examples/Al_Al2O3_lmp_ex_yuxin_edit/ffield.comb3.NiAlO Al O

neighbor 4.0 bin
neigh_modify one 2000
neigh_modify delay 0 every 10 check yes

region top_grain block INF INF INF INF 23.8 45
region bottom_grain block INF INF INF INF 1 19.1
group top region top_grain
144 atoms in group top
group bot region bottom_grain
222 atoms in group bot
group both_grains union top bot
366 atoms in group both_grains
fix ff both_grains setforce 0.0 0.0 0.0

minimize 0.0 1.0e-6 1 1
Switching to 'neigh_modify every 1 delay 0 check yes' setting during minimization
Neighbor list info ...
  update: every = 1 steps, delay = 0 steps, check = yes
  max neighbors/atom: 2000, page size: 100000
  master list distance cutoff = 15
  ghost atom cutoff = 15
  binsize = 7.5, bins = 2 2 7
  1 neighbor lists, perpetual/occasional/extra = 1 0 0
  (1) pair comb3, perpetual
      attributes: full, newton on, ghost
      pair build: full/bin/ghost
      stencil: full/ghost/bin/3d
      bin: standard
Per MPI rank memory allocation (min/avg/max) = 21.36 | 21.55 | 21.75 Mbytes
   Step          Temp          E_pair         E_mol          TotEng         Press     
         0   0             -1542.0331      0             -1542.0331      43265.481    
         1   0             -1545.9956      0             -1545.9956      41519.53     
Loop time of 0.0942255 on 2 procs for 1 steps with 381 atoms

97.5% CPU use with 2 MPI tasks x 1 OpenMP threads

Minimization stats:
  Stopping criterion = max force evaluations
  Energy initial, next-to-last, final = 
     -1542.03305784904  -1542.03305784904  -1545.99558829891
  Force two-norm initial, final = 23.186982 12.97171
  Force max component initial, final = 10.168767 5.6916162
  Final line search alpha, max atom move = 0.0098340341 0.055971548
  Iterations, force evaluations = 1 1

MPI task timing breakdown:
Section |  min time  |  avg time  |  max time  |%varavg| %total
---------------------------------------------------------------
Pair    | 0.064692   | 0.079224   | 0.093756   |   5.2 | 84.08
Neigh   | 0          | 0          | 0          |   0.0 |  0.00
Comm    | 0.000249   | 0.014771   | 0.029293   |  11.9 | 15.68
Output  | 0          | 0          | 0          |   0.0 |  0.00
Modify  | 6.964e-06  | 7.4465e-06 | 7.929e-06  |   0.0 |  0.01
Other   |            | 0.000223   |            |       |  0.24

Nlocal:          190.5 ave         255 max         126 min
Histogram: 1 0 0 0 0 0 0 0 0 1
Nghost:         5756.5 ave        6034 max        5479 min
Histogram: 1 0 0 0 0 0 0 0 0 1
Neighs:              0 ave           0 max           0 min
Histogram: 2 0 0 0 0 0 0 0 0 0
FullNghs:       193375 ave      290284 max       96466 min
Histogram: 1 0 0 0 0 0 0 0 0 1

Total # of neighbors = 386750
Ave neighs/atom = 1015.0919
Neighbor list builds = 0
Dangerous builds = 0

#thermo_style multi
#thermo 100

#fix 1 all box/relax aniso 0.0

#region bulk union 2 bulk1 bulk2
compute peatom all pe/atom
dump myDump all custom 1000 rlx.str id type x y z c_peatom

minimize 1.0e-6 1.0e-6 5000 10000
Switching to 'neigh_modify every 1 delay 0 check yes' setting during minimization
Per MPI rank memory allocation (min/avg/max) = 21.48 | 21.68 | 21.87 Mbytes
   Step          Temp          E_pair         E_mol          TotEng         Press     
         1   0             -1545.9956      0             -1545.9956      41519.53     
        21   0             -1553.3106      0             -1553.3106      40989.214    
Loop time of 1.35723 on 2 procs for 20 steps with 381 atoms

98.0% CPU use with 2 MPI tasks x 1 OpenMP threads

Minimization stats:
  Stopping criterion = energy tolerance
  Energy initial, next-to-last, final = 
     -1545.99558829891  -1553.30971797777  -1553.31061140893
  Force two-norm initial, final = 12.97171 0.61058083
  Force max component initial, final = 5.6916162 0.32447599
  Final line search alpha, max atom move = 0.31838396 0.10330795
  Iterations, force evaluations = 20 28

MPI task timing breakdown:
Section |  min time  |  avg time  |  max time  |%varavg| %total
---------------------------------------------------------------
Pair    | 0.93578    | 1.1422     | 1.3487     |  19.3 | 84.16
Neigh   | 0          | 0          | 0          |   0.0 |  0.00
Comm    | 0.0033497  | 0.21035    | 0.41735    |  45.1 | 15.50
Output  | 0          | 0          | 0          |   0.0 |  0.00
Modify  | 0.00010138 | 0.00010378 | 0.00010617 |   0.0 |  0.01
Other   |            | 0.004539   |            |       |  0.33

Nlocal:          190.5 ave         255 max         126 min
Histogram: 1 0 0 0 0 0 0 0 0 1
Nghost:         5756.5 ave        6034 max        5479 min
Histogram: 1 0 0 0 0 0 0 0 0 1
Neighs:              0 ave           0 max           0 min
Histogram: 2 0 0 0 0 0 0 0 0 0
FullNghs:       193382 ave      290294 max       96470 min
Histogram: 1 0 0 0 0 0 0 0 0 1

Total # of neighbors = 386764
Ave neighs/atom = 1015.1286
Neighbor list builds = 0
Dangerous builds = 0
Total wall time: 0:00:01
