LAMMPS (28 Mar 2023 - Update 1)
  using 1 OpenMP thread(s) per MPI task
# CdTe cluster
units metal
dimension 3
boundary p p p
atom_style  charge
read_data in.data
Reading data file ...
  orthogonal box = (0 0 0) to (8.4283 14.5982 49.476269)
  1 by 1 by 2 MPI processor grid
  reading atoms ...
  384 atoms
  read_data CPU = 0.004 seconds


mass 1 26.9815386
mass 2 15.9994

pair_style comb3 polar_off
pair_coeff * * /home/yuxin.chang/fantastx/examples/Al_Al2O3_lmp_ex_yuxin_edit/ffield.comb3.NiAlO Al O

neighbor 4.0 bin
neigh_modify one 2000
neigh_modify delay 0 every 10 check yes

region top_grain block INF INF INF INF 23.8 45
region bottom_grain block INF INF INF INF 1 19.1
group top region top_grain
144 atoms in group top
group bot region bottom_grain
222 atoms in group bot
group both_grains union top bot
366 atoms in group both_grains
fix ff both_grains setforce 0.0 0.0 0.0

minimize 0.0 1.0e-6 1 1
Switching to 'neigh_modify every 1 delay 0 check yes' setting during minimization
Neighbor list info ...
  update: every = 1 steps, delay = 0 steps, check = yes
  max neighbors/atom: 2000, page size: 100000
  master list distance cutoff = 15
  ghost atom cutoff = 15
  binsize = 7.5, bins = 2 2 7
  1 neighbor lists, perpetual/occasional/extra = 1 0 0
  (1) pair comb3, perpetual
      attributes: full, newton on, ghost
      pair build: full/bin/ghost
      stencil: full/ghost/bin/3d
      bin: standard
Per MPI rank memory allocation (min/avg/max) = 21.74 | 21.93 | 22.13 Mbytes
   Step          Temp          E_pair         E_mol          TotEng         Press     
         0   0             -1545.1208      0             -1545.1208      44072.061    
         1   0             -1548.9378      0             -1548.9378      42969.472    
Loop time of 0.0978445 on 2 procs for 1 steps with 384 atoms

98.0% CPU use with 2 MPI tasks x 1 OpenMP threads

Minimization stats:
  Stopping criterion = max force evaluations
  Energy initial, next-to-last, final = 
     -1545.12084179113  -1545.12084179113   -1548.9378060063
  Force two-norm initial, final = 23.898079 14.437624
  Force max component initial, final = 11.612642 5.382704
  Final line search alpha, max atom move = 0.0086113049 0.046352105
  Iterations, force evaluations = 1 1

MPI task timing breakdown:
Section |  min time  |  avg time  |  max time  |%varavg| %total
---------------------------------------------------------------
Pair    | 0.064871   | 0.081114   | 0.097357   |   5.7 | 82.90
Neigh   | 0          | 0          | 0          |   0.0 |  0.00
Comm    | 0.00026121 | 0.016494   | 0.032727   |  12.6 | 16.86
Output  | 0          | 0          | 0          |   0.0 |  0.00
Modify  | 7.064e-06  | 8.197e-06  | 9.33e-06   |   0.0 |  0.01
Other   |            | 0.0002286  |            |       |  0.23

Nlocal:            192 ave         258 max         126 min
Histogram: 1 0 0 0 0 0 0 0 0 1
Nghost:           5808 ave        6087 max        5529 min
Histogram: 1 0 0 0 0 0 0 0 0 1
Neighs:              0 ave           0 max           0 min
Histogram: 2 0 0 0 0 0 0 0 0 0
FullNghs:       196628 ave      295948 max       97308 min
Histogram: 1 0 0 0 0 0 0 0 0 1

Total # of neighbors = 393256
Ave neighs/atom = 1024.1042
Neighbor list builds = 0
Dangerous builds = 0

#thermo_style multi
#thermo 100

#fix 1 all box/relax aniso 0.0

#region bulk union 2 bulk1 bulk2
compute peatom all pe/atom
dump myDump all custom 1000 rlx.str id type x y z c_peatom

minimize 1.0e-6 1.0e-6 5000 10000
Switching to 'neigh_modify every 1 delay 0 check yes' setting during minimization
Per MPI rank memory allocation (min/avg/max) = 21.86 | 22.06 | 22.25 Mbytes
   Step          Temp          E_pair         E_mol          TotEng         Press     
         1   0             -1548.9378      0             -1548.9378      42969.472    
        26   0             -1558.3647      0             -1558.3647      41732.281    
Loop time of 2.02477 on 2 procs for 25 steps with 384 atoms

97.6% CPU use with 2 MPI tasks x 1 OpenMP threads

Minimization stats:
  Stopping criterion = energy tolerance
  Energy initial, next-to-last, final = 
      -1548.9378060063  -1558.36327238806  -1558.36467493146
  Force two-norm initial, final = 14.437624 0.85195779
  Force max component initial, final = 5.382704 0.69873968
  Final line search alpha, max atom move = 0.12117943 0.084672874
  Iterations, force evaluations = 25 40

MPI task timing breakdown:
Section |  min time  |  avg time  |  max time  |%varavg| %total
---------------------------------------------------------------
Pair    | 1.3391     | 1.6773     | 2.0156     |  26.1 | 82.84
Neigh   | 0          | 0          | 0          |   0.0 |  0.00
Comm    | 0.0050959  | 0.34315    | 0.68121    |  57.7 | 16.95
Output  | 0          | 0          | 0          |   0.0 |  0.00
Modify  | 0.00014718 | 0.00015821 | 0.00016924 |   0.0 |  0.01
Other   |            | 0.00413    |            |       |  0.20

Nlocal:            192 ave         258 max         126 min
Histogram: 1 0 0 0 0 0 0 0 0 1
Nghost:           5808 ave        6087 max        5529 min
Histogram: 1 0 0 0 0 0 0 0 0 1
Neighs:              0 ave           0 max           0 min
Histogram: 2 0 0 0 0 0 0 0 0 0
FullNghs:       196626 ave      295941 max       97311 min
Histogram: 1 0 0 0 0 0 0 0 0 1

Total # of neighbors = 393252
Ave neighs/atom = 1024.0938
Neighbor list builds = 0
Dangerous builds = 0
Total wall time: 0:00:02
