LAMMPS (28 Mar 2023 - Update 1)
  using 1 OpenMP thread(s) per MPI task
# CdTe cluster
units metal
dimension 3
boundary p p p
atom_style  charge
read_data in.data
Reading data file ...
  orthogonal box = (0 0 0) to (8.4283 14.5982 49.476269)
  1 by 1 by 2 MPI processor grid
  reading atoms ...
  380 atoms
  read_data CPU = 0.004 seconds


mass 1 26.9815386
mass 2 15.9994

pair_style comb3 polar_off
pair_coeff * * /home/yuxin.chang/fantastx/examples/Al_Al2O3_lmp_ex_yuxin_edit/ffield.comb3.NiAlO Al O

neighbor 4.0 bin
neigh_modify one 2000
neigh_modify delay 0 every 10 check yes

region top_grain block INF INF INF INF 23.8 45
region bottom_grain block INF INF INF INF 1 19.1
group top region top_grain
144 atoms in group top
group bot region bottom_grain
222 atoms in group bot
group both_grains union top bot
366 atoms in group both_grains
fix ff both_grains setforce 0.0 0.0 0.0

minimize 0.0 1.0e-6 1 1
Switching to 'neigh_modify every 1 delay 0 check yes' setting during minimization
Neighbor list info ...
  update: every = 1 steps, delay = 0 steps, check = yes
  max neighbors/atom: 2000, page size: 100000
  master list distance cutoff = 15
  ghost atom cutoff = 15
  binsize = 7.5, bins = 2 2 7
  1 neighbor lists, perpetual/occasional/extra = 1 0 0
  (1) pair comb3, perpetual
      attributes: full, newton on, ghost
      pair build: full/bin/ghost
      stencil: full/ghost/bin/3d
      bin: standard
Per MPI rank memory allocation (min/avg/max) = 21.36 | 21.55 | 21.75 Mbytes
   Step          Temp          E_pair         E_mol          TotEng         Press     
         0   0             -1541.3897      0             -1541.3897      42746.02     
         1   0             -1545.696       0             -1545.696       40864.186    
Loop time of 0.0965942 on 2 procs for 1 steps with 380 atoms

98.1% CPU use with 2 MPI tasks x 1 OpenMP threads

Minimization stats:
  Stopping criterion = max force evaluations
  Energy initial, next-to-last, final = 
     -1541.38969619766  -1541.38969619766  -1545.69601341544
  Force two-norm initial, final = 22.670275 15.786303
  Force max component initial, final = 9.7972167 5.5388216
  Final line search alpha, max atom move = 0.010206981 0.056534644
  Iterations, force evaluations = 1 1

MPI task timing breakdown:
Section |  min time  |  avg time  |  max time  |%varavg| %total
---------------------------------------------------------------
Pair    | 0.063704   | 0.079798   | 0.095892   |   5.7 | 82.61
Neigh   | 0          | 0          | 0          |   0.0 |  0.00
Comm    | 0.00027473 | 0.016365   | 0.032455   |  12.6 | 16.94
Output  | 0          | 0          | 0          |   0.0 |  0.00
Modify  | 6.755e-06  | 8.078e-06  | 9.401e-06  |   0.0 |  0.01
Other   |            | 0.0004238  |            |       |  0.44

Nlocal:            190 ave         254 max         126 min
Histogram: 1 0 0 0 0 0 0 0 0 1
Nghost:           5761 ave        6038 max        5484 min
Histogram: 1 0 0 0 0 0 0 0 0 1
Neighs:              0 ave           0 max           0 min
Histogram: 2 0 0 0 0 0 0 0 0 0
FullNghs:       192316 ave      288509 max       96123 min
Histogram: 1 0 0 0 0 0 0 0 0 1

Total # of neighbors = 384632
Ave neighs/atom = 1012.1895
Neighbor list builds = 0
Dangerous builds = 0

#thermo_style multi
#thermo 100

#fix 1 all box/relax aniso 0.0

#region bulk union 2 bulk1 bulk2
compute peatom all pe/atom
dump myDump all custom 1000 rlx.str id type x y z c_peatom

minimize 1.0e-6 1.0e-6 5000 10000
Switching to 'neigh_modify every 1 delay 0 check yes' setting during minimization
Per MPI rank memory allocation (min/avg/max) = 21.48 | 21.68 | 21.87 Mbytes
   Step          Temp          E_pair         E_mol          TotEng         Press     
         1   0             -1545.696       0             -1545.696       40864.186    
        39   0             -1559.7462      0             -1559.7462      41982.647    
Loop time of 3.26018 on 2 procs for 38 steps with 380 atoms

97.5% CPU use with 2 MPI tasks x 1 OpenMP threads

Minimization stats:
  Stopping criterion = energy tolerance
  Energy initial, next-to-last, final = 
     -1545.69601341544  -1559.74529943429  -1559.74623766924
  Force two-norm initial, final = 15.786303 2.5776665
  Force max component initial, final = 5.5388216 1.3408984
  Final line search alpha, max atom move = 0.041417793 0.055537053
  Iterations, force evaluations = 38 66

MPI task timing breakdown:
Section |  min time  |  avg time  |  max time  |%varavg| %total
---------------------------------------------------------------
Pair    | 2.1554     | 2.701      | 3.2466     |  33.2 | 82.85
Neigh   | 0          | 0          | 0          |   0.0 |  0.00
Comm    | 0.0085207  | 0.55386    | 1.0992     |  73.3 | 16.99
Output  | 0          | 0          | 0          |   0.0 |  0.00
Modify  | 0.00020138 | 0.00024124 | 0.00028109 |   0.0 |  0.01
Other   |            | 0.005085   |            |       |  0.16

Nlocal:            190 ave         254 max         126 min
Histogram: 1 0 0 0 0 0 0 0 0 1
Nghost:           5761 ave        6038 max        5484 min
Histogram: 1 0 0 0 0 0 0 0 0 1
Neighs:              0 ave           0 max           0 min
Histogram: 2 0 0 0 0 0 0 0 0 0
FullNghs:       192313 ave      288510 max       96116 min
Histogram: 1 0 0 0 0 0 0 0 0 1

Total # of neighbors = 384626
Ave neighs/atom = 1012.1737
Neighbor list builds = 0
Dangerous builds = 0
Total wall time: 0:00:03
