Al246 O134
1.0
   8.4283000000000001    0.0000000000000000    0.0000000000000000
   0.0000000000000000   14.5982000000000003    0.0000000000000000
   0.0000000000000000    0.0000000000000000   49.4762690000000021
Al O
246 134
Selective dynamics
direct
   0.0135940000000000    0.1666670000000000    0.1172530000000000 F F F Al
   0.0135940000000000    0.5000000000000000    0.1172530000000000 F F F Al
   0.0135940000000000    0.8333330000000000    0.1172530000000000 F F F Al
   0.5135940000000000    0.0000000000000000    0.1172530000000000 F F F Al
   0.5135940000000000    0.3333330000000000    0.1172530000000000 F F F Al
   0.5135940000000000    0.6666660000000000    0.1172530000000000 F F F Al
   0.3469270000000000    0.1666670000000000    0.1514200000000000 F F F Al
   0.3469270000000000    0.5000000000000000    0.1514200000000000 F F F Al
   0.3469270000000000    0.8333330000000000    0.1514200000000000 F F F Al
   0.8469270000000000    0.0000000000000000    0.1514200000000000 F F F Al
   0.8469270000000000    0.3333330000000000    0.1514200000000000 F F F Al
   0.8469270000000000    0.6666670000000000    0.1514200000000000 F F F Al
   0.1802610000000000    0.0000000000000000    0.1613470000000000 F F F Al
   0.1802610000000000    0.3333330000000000    0.1613470000000000 F F F Al
   0.1802610000000000    0.6666660000000000    0.1613470000000000 F F F Al
   0.6802610000000000    0.1666670000000000    0.1613470000000000 F F F Al
   0.6802610000000000    0.5000000000000000    0.1613470000000000 F F F Al
   0.6802610000000000    0.8333330000000000    0.1613470000000000 F F F Al
   0.0135940000000000    0.1666670000000000    0.1955150000000000 F F F Al
   0.0135940000000000    0.5000000000000000    0.1955150000000000 F F F Al
   0.0135940000000000    0.8333330000000000    0.1955150000000000 F F F Al
   0.5135940000000000    0.0000000000000000    0.1955150000000000 F F F Al
   0.5135940000000000    0.3333330000000000    0.1955150000000000 F F F Al
   0.5135940000000000    0.6666660000000000    0.1955150000000000 F F F Al
   0.3469270000000000    0.1666670000000000    0.2054430000000000 F F F Al
   0.3469270000000000    0.5000000000000000    0.2054430000000000 F F F Al
   0.3469270000000000    0.8333330000000000    0.2054430000000000 F F F Al
   0.8469270000000000    0.0000000000000000    0.2054430000000000 F F F Al
   0.8469270000000000    0.3333330000000000    0.2054430000000000 F F F Al
   0.8469270000000000    0.6666670000000000    0.2054430000000000 F F F Al
   0.1802610000000000    0.0000000000000000    0.2396100000000000 F F F Al
   0.1802610000000000    0.3333330000000000    0.2396100000000000 F F F Al
   0.1802610000000000    0.6666660000000000    0.2396100000000000 F F F Al
   0.6802610000000000    0.1666670000000000    0.2396100000000000 F F F Al
   0.6802610000000000    0.5000000000000000    0.2396100000000000 F F F Al
   0.6802610000000000    0.8333330000000000    0.2396100000000000 F F F Al
   0.0135940000000000    0.1666670000000000    0.2495380000000000 F F F Al
   0.0135940000000000    0.5000000000000000    0.2495380000000000 F F F Al
   0.0135940000000000    0.8333330000000000    0.2495380000000000 F F F Al
   0.5135940000000000    0.0000000000000000    0.2495380000000000 F F F Al
   0.5135940000000000    0.3333330000000000    0.2495380000000000 F F F Al
   0.5135940000000000    0.6666660000000000    0.2495380000000000 F F F Al
   0.3469270000000000    0.1666670000000000    0.2837060000000000 F F F Al
   0.3469270000000000    0.5000000000000000    0.2837060000000000 F F F Al
   0.3469270000000000    0.8333330000000000    0.2837060000000000 F F F Al
   0.8469270000000000    0.0000000000000000    0.2837060000000000 F F F Al
   0.8469270000000000    0.3333330000000000    0.2837060000000000 F F F Al
   0.8469270000000000    0.6666670000000000    0.2837060000000000 F F F Al
   0.1802600000000000    0.0000000000000000    0.2936340000000000 F F F Al
   0.1802600000000000    0.3333330000000000    0.2936340000000000 F F F Al
   0.1802600000000000    0.6666660000000000    0.2936340000000000 F F F Al
   0.6802610000000000    0.1666670000000000    0.2936340000000000 F F F Al
   0.6802610000000000    0.5000000000000000    0.2936340000000000 F F F Al
   0.6802610000000000    0.8333330000000000    0.2936340000000000 F F F Al
   0.0135940000000000    0.1666670000000000    0.0632290000000000 F F F Al
   0.0135940000000000    0.1666670000000000    0.3278010000000000 F F F Al
   0.0135940000000000    0.5000000000000000    0.0632290000000000 F F F Al
   0.0135940000000000    0.5000000000000000    0.3278010000000000 F F F Al
   0.0135940000000000    0.8333330000000000    0.0632290000000000 F F F Al
   0.0135940000000000    0.8333330000000000    0.3278010000000000 F F F Al
   0.5135940000000000    0.0000000000000000    0.0632290000000000 F F F Al
   0.5135940000000000    0.0000000000000000    0.3278010000000000 F F F Al
   0.5135940000000000    0.3333330000000000    0.0632290000000000 F F F Al
   0.5135940000000000    0.3333330000000000    0.3278010000000000 F F F Al
   0.5135940000000000    0.6666660000000000    0.0632290000000000 F F F Al
   0.5135940000000000    0.6666660000000000    0.3278010000000000 F F F Al
   0.3469270000000000    0.1666670000000000    0.0731570000000000 F F F Al
   0.3469270000000000    0.1666670000000000    0.3377280000000000 F F F Al
   0.3469270000000000    0.5000000000000000    0.0731570000000000 F F F Al
   0.3469270000000000    0.5000000000000000    0.3377280000000000 F F F Al
   0.3469270000000000    0.8333330000000000    0.0731570000000000 F F F Al
   0.3469270000000000    0.8333330000000000    0.3377280000000000 F F F Al
   0.8469270000000000    0.0000000000000000    0.0731570000000000 F F F Al
   0.8469270000000000    0.0000000000000000    0.3377280000000000 F F F Al
   0.8469270000000000    0.3333330000000000    0.0731570000000000 F F F Al
   0.8469270000000000    0.3333330000000000    0.3377280000000000 F F F Al
   0.8469270000000000    0.6666670000000000    0.0731570000000000 F F F Al
   0.8469270000000000    0.6666670000000000    0.3377280000000000 F F F Al
   0.1802610000000000    0.0000000000000000    0.1073250000000000 F F F Al
   0.1802610000000000    0.3333330000000000    0.1073250000000000 F F F Al
   0.1802610000000000    0.6666660000000000    0.1073250000000000 F F F Al
   0.6802610000000000    0.1666670000000000    0.1073250000000000 F F F Al
   0.6802610000000000    0.5000000000000000    0.1073250000000000 F F F Al
   0.6802610000000000    0.8333330000000000    0.1073250000000000 F F F Al
   0.0135940000000000    0.1666670000000000    0.3741310000000000 F F F Al
   0.0135940000000000    0.5000000000000000    0.3741310000000000 F F F Al
   0.0135940000000000    0.8333330000000000    0.3741310000000000 F F F Al
   0.5135940000000000    0.0000000000000000    0.3741310000000000 F F F Al
   0.5135940000000000    0.3333330000000000    0.3741310000000000 F F F Al
   0.5135940000000000    0.6666660000000000    0.3741310000000000 F F F Al
   0.3469270000000000    0.1666670000000000    0.3840590000000000 F F F Al
   0.3469270000000000    0.5000000000000000    0.3840590000000000 F F F Al
   0.3469270000000000    0.8333330000000000    0.3840590000000000 F F F Al
   0.8469270000000000    0.0000000000000000    0.3840590000000000 F F F Al
   0.8469270000000000    0.3333330000000000    0.3840590000000000 F F F Al
   0.8469270000000000    0.6666670000000000    0.3840590000000000 F F F Al
   0.8333350000000000    0.0065260000000000    0.8104600000000000 F F F Al
   0.1666670000000000    0.0065260000000000    0.8104600000000000 F F F Al
   0.8333350000000000    0.0087010000000000    0.6693510000000000 F F F Al
   0.1666670000000000    0.0087010000000000    0.6693510000000000 F F F Al
   0.5000010000000000    0.1190870000000000    0.7165410000000000 F F F Al
   0.8333350000000000    0.2294730000000000    0.7637300000000000 F F F Al
   0.1666670000000000    0.2294730000000000    0.7637300000000000 F F F Al
   0.5000010000000000    0.3398590000000000    0.8109200000000000 F F F Al
   0.8333350000000000    0.0108770000000000    0.5282410000000000 F F F Al
   0.1666670000000000    0.0108770000000000    0.5282410000000000 F F F Al
   0.5000010000000000    0.1212620000000000    0.5754320000000001 F F F Al
   0.8333350000000000    0.2316480000000000    0.6226210000000000 F F F Al
   0.1666670000000000    0.2316480000000000    0.6226210000000000 F F F Al
   0.5000010000000000    0.3420340000000000    0.6698110000000000 F F F Al
   0.8333350000000000    0.4524200000000000    0.7170010000000000 F F F Al
   0.1666670000000000    0.4524200000000000    0.7170010000000000 F F F Al
   0.5000010000000000    0.5628060000000000    0.7641910000000000 F F F Al
   0.8333350000000000    0.6731920000000000    0.8113810000000000 F F F Al
   0.1666670000000000    0.6731920000000000    0.8113810000000000 F F F Al
   0.8333350000000000    0.2338240000000000    0.4815130000000000 F F F Al
   0.1666670000000000    0.2338240000000000    0.4815130000000000 F F F Al
   0.5000010000000000    0.3442100000000000    0.5287020000000000 F F F Al
   0.8333350000000000    0.4545950000000000    0.5758920000000000 F F F Al
   0.1666670000000000    0.4545950000000000    0.5758920000000000 F F F Al
   0.5000010000000000    0.5649810000000000    0.6230810000000000 F F F Al
   0.8333350000000000    0.6753670000000001    0.6702720000000000 F F F Al
   0.1666670000000000    0.6753670000000001    0.6702720000000000 F F F Al
   0.5000010000000000    0.7857530000000000    0.7174620000000000 F F F Al
   0.8333350000000000    0.8961390000000000    0.7646510000000000 F F F Al
   0.1666670000000000    0.8961390000000000    0.7646510000000000 F F F Al
   0.5000010000000000    0.5671570000000000    0.4819730000000000 F F F Al
   0.8333350000000000    0.6775430000000000    0.5291620000000000 F F F Al
   0.1666670000000000    0.6775430000000000    0.5291620000000000 F F F Al
   0.5000010000000000    0.7879280000000000    0.5763530000000000 F F F Al
   0.8333350000000000    0.8983139999999999    0.6235420000000000 F F F Al
   0.1666670000000000    0.8983139999999999    0.6235420000000000 F F F Al
   0.8333350000000000    0.9004900000000000    0.4824330000000000 F F F Al
   0.1666670000000000    0.9004900000000000    0.4824330000000000 F F F Al
   0.5000010000000000    0.0065260000000000    0.8104600000000000 F F F Al
   0.5000010000000000    0.0087010000000000    0.6693510000000000 F F F Al
   0.8333350000000000    0.1190870000000000    0.7165410000000000 F F F Al
   0.1666670000000000    0.1190870000000000    0.7165410000000000 F F F Al
   0.5000010000000000    0.2294730000000000    0.7637300000000000 F F F Al
   0.8333350000000000    0.3398590000000000    0.8109200000000000 F F F Al
   0.1666670000000000    0.3398590000000000    0.8109200000000000 F F F Al
   0.5000010000000000    0.0108770000000000    0.5282410000000000 F F F Al
   0.8333350000000000    0.1212620000000000    0.5754320000000001 F F F Al
   0.1666670000000000    0.1212620000000000    0.5754320000000001 F F F Al
   0.5000010000000000    0.2316480000000000    0.6226210000000000 F F F Al
   0.8333350000000000    0.3420340000000000    0.6698110000000000 F F F Al
   0.1666670000000000    0.3420340000000000    0.6698110000000000 F F F Al
   0.5000010000000000    0.4524200000000000    0.7170010000000000 F F F Al
   0.8333350000000000    0.5628060000000000    0.7641910000000000 F F F Al
   0.1666670000000000    0.5628060000000000    0.7641910000000000 F F F Al
   0.5000010000000000    0.6731920000000000    0.8113810000000000 F F F Al
   0.5000010000000000    0.2338240000000000    0.4815130000000000 F F F Al
   0.8333350000000000    0.3442100000000000    0.5287020000000000 F F F Al
   0.1666670000000000    0.3442100000000000    0.5287020000000000 F F F Al
   0.5000010000000000    0.4545950000000000    0.5758920000000000 F F F Al
   0.8333350000000000    0.5649810000000000    0.6230810000000000 F F F Al
   0.1666670000000000    0.5649810000000000    0.6230810000000000 F F F Al
   0.5000010000000000    0.6753670000000001    0.6702720000000000 F F F Al
   0.8333350000000000    0.7857530000000000    0.7174620000000000 F F F Al
   0.1666670000000000    0.7857530000000000    0.7174620000000000 F F F Al
   0.5000010000000000    0.8961390000000000    0.7646510000000000 F F F Al
   0.8333350000000000    0.5671570000000000    0.4819730000000000 F F F Al
   0.1666670000000000    0.5671570000000000    0.4819730000000000 F F F Al
   0.5000010000000000    0.6775430000000000    0.5291620000000000 F F F Al
   0.8333350000000000    0.7879280000000000    0.5763530000000000 F F F Al
   0.1666670000000000    0.7879280000000000    0.5763530000000000 F F F Al
   0.5000010000000000    0.8983139999999999    0.6235420000000000 F F F Al
   0.5000010000000000    0.9004900000000000    0.4824330000000000 F F F Al
   0.6666680000000000    0.0628070000000000    0.7635000000000000 F F F Al
   0.0000000000000000    0.0628070000000000    0.7635000000000000 F F F Al
   0.3333340000000000    0.1731920000000000    0.8106910000000001 F F F Al
   0.6666680000000000    0.0649820000000000    0.6223910000000000 F F F Al
   0.0000000000000000    0.0649820000000000    0.6223910000000000 F F F Al
   0.3333340000000000    0.1753680000000000    0.6695810000000000 F F F Al
   0.6666680000000000    0.2857540000000000    0.7167710000000000 F F F Al
   0.0000000000000000    0.2857540000000000    0.7167710000000000 F F F Al
   0.3333340000000000    0.3961400000000000    0.7639610000000000 F F F Al
   0.6666680000000000    0.5065250000000000    0.8111510000000000 F F F Al
   0.0000000000000000    0.5065250000000000    0.8111510000000000 F F F Al
   0.6666680000000000    0.0671570000000000    0.4812820000000000 F F F Al
   0.0000000000000000    0.0671570000000000    0.4812820000000000 F F F Al
   0.3333340000000000    0.1775430000000000    0.5284720000000001 F F F Al
   0.6666680000000000    0.2879290000000000    0.5756610000000000 F F F Al
   0.0000000000000000    0.2879290000000000    0.5756610000000000 F F F Al
   0.3333340000000000    0.3983150000000000    0.6228520000000000 F F F Al
   0.6666680000000000    0.5087010000000000    0.6700420000000000 F F F Al
   0.0000000000000000    0.5087010000000000    0.6700420000000000 F F F Al
   0.3333340000000000    0.6190870000000001    0.7172310000000000 F F F Al
   0.6666680000000000    0.7294730000000000    0.7644210000000000 F F F Al
   0.0000000000000000    0.7294730000000000    0.7644210000000000 F F F Al
   0.3333340000000000    0.8398590000000000    0.8116120000000000 F F F Al
   0.3333340000000000    0.4004900000000000    0.4817420000000000 F F F Al
   0.6666680000000000    0.5108760000000000    0.5289330000000000 F F F Al
   0.0000000000000000    0.5108760000000000    0.5289330000000000 F F F Al
   0.3333340000000000    0.6212620000000000    0.5761220000000000 F F F Al
   0.6666680000000000    0.7316480000000000    0.6233120000000000 F F F Al
   0.0000000000000000    0.7316480000000000    0.6233120000000000 F F F Al
   0.3333340000000000    0.8420339999999999    0.6705020000000000 F F F Al
   0.6666680000000000    0.9524200000000000    0.7176920000000000 F F F Al
   0.0000000000000000    0.9524200000000000    0.7176920000000000 F F F Al
   0.6666680000000000    0.7338230000000000    0.4822030000000000 F F F Al
   0.0000000000000000    0.7338230000000000    0.4822030000000000 F F F Al
   0.3333340000000000    0.8442090000000000    0.5293930000000000 F F F Al
   0.6666680000000000    0.9545950000000000    0.5765820000000000 F F F Al
   0.0000000000000000    0.9545950000000000    0.5765820000000000 F F F Al
   0.3333340000000000    0.0628070000000000    0.7635000000000000 F F F Al
   0.6666680000000000    0.1731920000000000    0.8106910000000001 F F F Al
   0.0000000000000000    0.1731920000000000    0.8106910000000001 F F F Al
   0.3333340000000000    0.0649820000000000    0.6223910000000000 F F F Al
   0.6666680000000000    0.1753680000000000    0.6695810000000000 F F F Al
   0.0000000000000000    0.1753680000000000    0.6695810000000000 F F F Al
   0.3333340000000000    0.2857540000000000    0.7167710000000000 F F F Al
   0.6666680000000000    0.3961400000000000    0.7639610000000000 F F F Al
   0.0000000000000000    0.3961400000000000    0.7639610000000000 F F F Al
   0.3333340000000000    0.5065250000000000    0.8111510000000000 F F F Al
   0.3333340000000000    0.0671570000000000    0.4812820000000000 F F F Al
   0.6666680000000000    0.1775430000000000    0.5284720000000001 F F F Al
   0.0000000000000000    0.1775430000000000    0.5284720000000001 F F F Al
   0.3333340000000000    0.2879290000000000    0.5756610000000000 F F F Al
   0.6666680000000000    0.3983150000000000    0.6228520000000000 F F F Al
   0.0000000000000000    0.3983150000000000    0.6228520000000000 F F F Al
   0.3333340000000000    0.5087010000000000    0.6700420000000000 F F F Al
   0.6666680000000000    0.6190870000000001    0.7172310000000000 F F F Al
   0.0000000000000000    0.6190870000000001    0.7172310000000000 F F F Al
   0.3333340000000000    0.7294730000000000    0.7644210000000000 F F F Al
   0.6666680000000000    0.8398590000000000    0.8116120000000000 F F F Al
   0.0000000000000000    0.8398590000000000    0.8116120000000000 F F F Al
   0.6666680000000000    0.4004900000000000    0.4817420000000000 F F F Al
   0.0000000000000000    0.4004900000000000    0.4817420000000000 F F F Al
   0.3333340000000000    0.5108760000000000    0.5289330000000000 F F F Al
   0.6666680000000000    0.6212620000000000    0.5761220000000000 F F F Al
   0.0000000000000000    0.6212620000000000    0.5761220000000000 F F F Al
   0.3333340000000000    0.7316480000000000    0.6233120000000000 F F F Al
   0.6666680000000000    0.8420339999999999    0.6705020000000000 F F F Al
   0.0000000000000000    0.8420339999999999    0.6705020000000000 F F F Al
   0.3333340000000000    0.9524200000000000    0.7176920000000000 F F F Al
   0.3333340000000000    0.7338230000000000    0.4822030000000000 F F F Al
   0.6666680000000000    0.8442090000000000    0.5293930000000000 F F F Al
   0.0000000000000000    0.8442090000000000    0.5293930000000000 F F F Al
   0.3333340000000000    0.9545950000000000    0.5765820000000000 F F F Al
   0.0118839861798350    0.7147019288418460    0.4231978988320438 F F F Al
   0.5172635060007645    0.2127750250791301    0.4233526713572025 F F F Al
   0.3266080442813836    0.5007465293641501    0.4287186950275328 F F F Al
   0.2407740785110543    0.8292174609153014    0.4289463947090388 F F F Al
   0.7345561975724643    0.3398740940663916    0.4289910478937249 F F F Al
   0.8456855314228955    0.0091594878093597    0.4326504714974905 F F F Al
   0.3469270000000000    0.0646180000000000    0.1784310000000000 F F F O
   0.3469270000000000    0.3979510000000000    0.1784310000000000 F F F O
   0.3469270000000000    0.7312840000000000    0.1784310000000000 F F F O
   0.8469270000000000    0.2312850000000000    0.1784310000000000 F F F O
   0.8469270000000000    0.5646180000000000    0.1784310000000000 F F F O
   0.8469270000000000    0.8979510000000001    0.1784310000000000 F F F O
   0.0271870000000000    0.2823090000000000    0.1343360000000000 F F F O
   0.0271870000000000    0.6156420000000000    0.1343360000000000 F F F O
   0.0271870000000000    0.9489750000000000    0.1343360000000000 F F F O
   0.5271870000000000    0.1156420000000000    0.1343360000000000 F F F O
   0.5271870000000000    0.4489760000000000    0.1343360000000000 F F F O
   0.5271870000000000    0.7823090000000000    0.1343360000000000 F F F O
   0.0000000000000000    0.0510240000000000    0.1784310000000000 F F F O
   0.0000000000000000    0.3843570000000000    0.1784310000000000 F F F O
   0.0000000000000000    0.7176910000000000    0.1784310000000000 F F F O
   0.5000000000000000    0.2176910000000000    0.1784310000000000 F F F O
   0.5000000000000000    0.5510240000000000    0.1784310000000000 F F F O
   0.5000000000000000    0.8843569999999999    0.1784310000000000 F F F O
   0.1938540000000000    0.2176910000000000    0.1784310000000000 F F F O
   0.1938540000000000    0.5510240000000000    0.1784310000000000 F F F O
   0.1938540000000000    0.8843569999999999    0.1784310000000000 F F F O
   0.6938540000000000    0.0510250000000000    0.1784310000000000 F F F O
   0.6938540000000000    0.3843580000000000    0.1784310000000000 F F F O
   0.6938540000000000    0.7176910000000000    0.1784310000000000 F F F O
   0.3333340000000000    0.2823090000000000    0.1343360000000000 F F F O
   0.3333340000000000    0.6156420000000000    0.1343360000000000 F F F O
   0.3333340000000000    0.9489750000000000    0.1343360000000000 F F F O
   0.8333340000000000    0.1156420000000000    0.1343360000000000 F F F O
   0.8333340000000000    0.4489760000000000    0.1343360000000000 F F F O
   0.8333340000000000    0.7823090000000000    0.1343360000000000 F F F O
   0.1802610000000000    0.1020490000000000    0.1343360000000000 F F F O
   0.1802610000000000    0.4353820000000000    0.1343360000000000 F F F O
   0.1802610000000000    0.7687150000000000    0.1343360000000000 F F F O
   0.6802610000000000    0.2687150000000000    0.1343360000000000 F F F O
   0.6802610000000000    0.6020489999999999    0.1343360000000000 F F F O
   0.6802610000000000    0.9353820000000000    0.1343360000000000 F F F O
   0.1802610000000000    0.2312850000000000    0.2666210000000000 F F F O
   0.1802610000000000    0.5646180000000000    0.2666210000000000 F F F O
   0.1802610000000000    0.8979510000000001    0.2666210000000000 F F F O
   0.6802610000000000    0.0646180000000000    0.2666210000000000 F F F O
   0.6802610000000000    0.3979510000000000    0.2666210000000000 F F F O
   0.6802610000000000    0.7312840000000000    0.2666210000000000 F F F O
   0.3605210000000000    0.2823090000000000    0.2225260000000000 F F F O
   0.3605210000000000    0.6156420000000000    0.2225260000000000 F F F O
   0.3605210000000000    0.9489750000000000    0.2225260000000000 F F F O
   0.8605210000000000    0.1156430000000000    0.2225260000000000 F F F O
   0.8605210000000000    0.4489760000000000    0.2225260000000000 F F F O
   0.8605210000000000    0.7823090000000000    0.2225260000000000 F F F O
   0.3333340000000000    0.0510250000000000    0.2666210000000000 F F F O
   0.3333340000000000    0.3843580000000000    0.2666210000000000 F F F O
   0.3333340000000000    0.7176910000000000    0.2666210000000000 F F F O
   0.8333340000000000    0.2176910000000000    0.2666210000000000 F F F O
   0.8333340000000000    0.5510240000000000    0.2666210000000000 F F F O
   0.8333340000000000    0.8843569999999999    0.2666210000000000 F F F O
   0.0271870000000000    0.0510250000000000    0.2666210000000000 F F F O
   0.0271870000000000    0.3843580000000000    0.2666210000000000 F F F O
   0.0271870000000000    0.7176910000000000    0.2666210000000000 F F F O
   0.5271870000000000    0.2176910000000000    0.2666210000000000 F F F O
   0.5271870000000000    0.5510240000000000    0.2666210000000000 F F F O
   0.5271870000000000    0.8843569999999999    0.2666210000000000 F F F O
   0.1666670000000000    0.1156420000000000    0.2225260000000000 F F F O
   0.1666670000000000    0.4489760000000000    0.2225260000000000 F F F O
   0.1666670000000000    0.7823090000000000    0.2225260000000000 F F F O
   0.6666670000000000    0.2823090000000000    0.2225260000000000 F F F O
   0.6666670000000000    0.6156420000000000    0.2225260000000000 F F F O
   0.6666670000000000    0.9489750000000000    0.2225260000000000 F F F O
   0.0135940000000000    0.2687150000000000    0.2225260000000000 F F F O
   0.0135940000000000    0.6020480000000000    0.2225260000000000 F F F O
   0.0135940000000000    0.9353820000000000    0.2225260000000000 F F F O
   0.5135940000000000    0.1020490000000000    0.2225260000000000 F F F O
   0.5135940000000000    0.4353820000000000    0.2225260000000000 F F F O
   0.5135940000000000    0.7687150000000000    0.2225260000000000 F F F O
   0.0135940000000000    0.0646180000000000    0.0902400000000000 F F F O
   0.0135940000000000    0.0646180000000000    0.3548120000000000 F F F O
   0.0135940000000000    0.3979510000000000    0.0902400000000000 F F F O
   0.0135940000000000    0.3979510000000000    0.3548120000000000 F F F O
   0.0135940000000000    0.7312840000000000    0.0902400000000000 F F F O
   0.0135940000000000    0.7312840000000000    0.3548120000000000 F F F O
   0.5135940000000000    0.2312850000000000    0.0902400000000000 F F F O
   0.5135940000000000    0.2312850000000000    0.3548120000000000 F F F O
   0.5135940000000000    0.5646180000000000    0.0902400000000000 F F F O
   0.5135940000000000    0.5646180000000000    0.3548120000000000 F F F O
   0.5135940000000000    0.8979510000000001    0.0902400000000000 F F F O
   0.5135940000000000    0.8979510000000001    0.3548120000000000 F F F O
   0.1938540000000000    0.1156420000000000    0.3107170000000000 F F F O
   0.1938540000000000    0.4489760000000000    0.3107170000000000 F F F O
   0.1938540000000000    0.7823090000000000    0.3107170000000000 F F F O
   0.6938540000000000    0.2823090000000000    0.3107170000000000 F F F O
   0.6938540000000000    0.6156420000000000    0.3107170000000000 F F F O
   0.6938540000000000    0.9489750000000000    0.3107170000000000 F F F O
   0.1666670000000000    0.2176910000000000    0.0902400000000000 F F F O
   0.1666670000000000    0.2176910000000000    0.3548120000000000 F F F O
   0.1666670000000000    0.5510240000000000    0.0902400000000000 F F F O
   0.1666670000000000    0.5510250000000000    0.3548120000000000 F F F O
   0.1666670000000000    0.8843569999999999    0.0902400000000000 F F F O
   0.1666670000000000    0.8843569999999999    0.3548120000000000 F F F O
   0.6666670000000000    0.0510250000000000    0.0902400000000000 F F F O
   0.6666670000000000    0.0510250000000000    0.3548120000000000 F F F O
   0.6666670000000000    0.3843580000000000    0.0902400000000000 F F F O
   0.6666670000000000    0.3843580000000000    0.3548120000000000 F F F O
   0.6666670000000000    0.7176910000000000    0.0902400000000000 F F F O
   0.6666670000000000    0.7176910000000000    0.3548120000000000 F F F O
   0.3605210000000000    0.0510240000000000    0.0902400000000000 F F F O
   0.3605210000000000    0.0510250000000000    0.3548120000000000 F F F O
   0.3605210000000000    0.3843570000000000    0.0902400000000000 F F F O
   0.3605210000000000    0.3843580000000000    0.3548120000000000 F F F O
   0.3605210000000000    0.7176910000000000    0.0902400000000000 F F F O
   0.3605210000000000    0.7176910000000000    0.3548120000000000 F F F O
   0.8605210000000000    0.2176910000000000    0.0902400000000000 F F F O
   0.8605210000000000    0.2176910000000000    0.3548120000000000 F F F O
   0.8605210000000000    0.5510240000000000    0.0902400000000000 F F F O
   0.8605210000000000    0.5510250000000000    0.3548120000000000 F F F O
   0.8605210000000000    0.8843569999999999    0.0902400000000000 F F F O
   0.8605210000000000    0.8843569999999999    0.3548120000000000 F F F O
   0.0000000000000000    0.2823090000000000    0.3107170000000000 F F F O
   0.0000000000000000    0.6156420000000000    0.3107170000000000 F F F O
   0.0000000000000000    0.9489750000000000    0.3107170000000000 F F F O
   0.5000000000000000    0.1156430000000000    0.3107170000000000 F F F O
   0.5000000000000000    0.4489760000000000    0.3107170000000000 F F F O
   0.5000000000000000    0.7823090000000000    0.3107170000000000 F F F O
   0.3469270000000000    0.2687150000000000    0.3107170000000000 F F F O
   0.3469270000000000    0.6020480000000000    0.3107170000000000 F F F O
   0.3469270000000000    0.9353810000000000    0.3107170000000000 F F F O
   0.8469270000000000    0.1020490000000000    0.3107170000000000 F F F O
   0.8469270000000000    0.4353820000000000    0.3107170000000000 F F F O
   0.8469270000000000    0.7687150000000000    0.3107170000000000 F F F O
   0.8849761717689431    0.7810967983051045    0.4040951990103170 F F F O
   0.6610692547726114    0.2789919305119809    0.4038829592976640 F F F O
   0.3821250686416464    0.2757664215483796    0.4047214003131556 F F F O
   0.3361321715000771    0.6149110314649631    0.4062366638211735 F F F O
   0.1812328171498460    0.4480106359337088    0.4078675191821772 F F F O
   0.5143342043059952    0.4387786510034580    0.4075048338525816 F F F O
   0.7675541009761125    0.4321839830899782    0.4089432653440747 F F F O
   0.2478747684423858    0.9292168627374163    0.4080349323792598 F F F O
