Sr39 Ti50 O139
1.0
14.065500 0.000000 0.000000
0.000000 14.065500 0.000000
0.000000 0.000000 43.208600
Sr Ti O
39 50 139
direct
0.306400 0.461100 0.492350 Sr
0.693600 0.538900 0.492350 Sr
0.538900 0.306400 0.492350 Sr
0.461100 0.693600 0.492350 Sr
0.614800 0.922400 0.492550 Sr
0.385200 0.077600 0.492550 Sr
0.077600 0.614800 0.492550 Sr
0.922400 0.385200 0.492550 Sr
0.230600 0.845800 0.492650 Sr
0.769400 0.154200 0.492650 Sr
0.154200 0.230600 0.492650 Sr
0.845800 0.769400 0.492650 Sr
0.000000 0.000000 0.492250 Sr
0.461300 0.693100 0.402150 Sr
0.538700 0.306900 0.402150 Sr
0.306900 0.461300 0.402150 Sr
0.693100 0.538700 0.402150 Sr
0.615400 0.922800 0.402350 Sr
0.384600 0.077200 0.402350 Sr
0.077200 0.615400 0.402350 Sr
0.922800 0.384600 0.402350 Sr
0.154000 0.230700 0.402250 Sr
0.846000 0.769300 0.402250 Sr
0.769300 0.154000 0.402250 Sr
0.230700 0.846000 0.402250 Sr
0.000000 0.000000 0.402150 Sr
0.693000 0.538600 0.311850 Sr
0.307000 0.461400 0.311850 Sr
0.461400 0.693000 0.311850 Sr
0.538600 0.307000 0.311850 Sr
0.077100 0.615400 0.311850 Sr
0.922900 0.384600 0.311850 Sr
0.384600 0.077100 0.311850 Sr
0.615400 0.922900 0.311850 Sr
0.846100 0.769300 0.311850 Sr
0.153900 0.230700 0.311850 Sr
0.230700 0.846100 0.311850 Sr
0.769300 0.153900 0.311850 Sr
0.000000 0.000000 0.311850 Sr
0.500000 0.500000 0.535150 Ti
0.114500 0.422300 0.537650 Ti
0.885500 0.577700 0.537650 Ti
0.577700 0.114500 0.537650 Ti
0.422300 0.885500 0.537650 Ti
0.345900 0.268100 0.538850 Ti
0.654100 0.731900 0.538850 Ti
0.731900 0.345900 0.538850 Ti
0.268100 0.654100 0.538850 Ti
0.962000 0.193600 0.538050 Ti
0.038000 0.806400 0.538050 Ti
0.806400 0.962000 0.538050 Ti
0.193600 0.038000 0.538050 Ti
0.500000 0.500000 0.446150 Ti
0.115300 0.423000 0.447550 Ti
0.884700 0.577000 0.447550 Ti
0.577000 0.115300 0.447550 Ti
0.423000 0.884700 0.447550 Ti
0.269300 0.653700 0.447850 Ti
0.730700 0.346300 0.447850 Ti
0.346300 0.269300 0.447850 Ti
0.653700 0.730700 0.447850 Ti
0.961600 0.191900 0.447550 Ti
0.038400 0.808100 0.447550 Ti
0.808100 0.961600 0.447550 Ti
0.191900 0.038400 0.447550 Ti
0.500000 0.500000 0.356750 Ti
0.115100 0.422900 0.357050 Ti
0.884900 0.577100 0.357050 Ti
0.577100 0.115100 0.357050 Ti
0.422900 0.884900 0.357050 Ti
0.269100 0.653900 0.357150 Ti
0.730900 0.346100 0.357150 Ti
0.346100 0.269100 0.357150 Ti
0.653900 0.730900 0.357150 Ti
0.038500 0.807600 0.357050 Ti
0.961500 0.192400 0.357050 Ti
0.192400 0.038500 0.357050 Ti
0.807600 0.961500 0.357050 Ti
0.964839 0.458017 0.579465 Ti
0.747613 0.804591 0.579465 Ti
0.583327 0.979439 0.579365 Ti
0.939720 0.721669 0.579465 Ti
0.347140 0.071581 0.579365 Ti
0.681637 0.312581 0.579465 Ti
0.145690 0.053079 0.580065 Ti
0.349095 0.584092 0.579365 Ti
0.128599 0.303409 0.579365 Ti
0.191040 0.713138 0.580065 Ti
0.439666 0.806664 0.580065 Ti
0.423500 0.384600 0.537750 O
0.576500 0.615400 0.537750 O
0.615400 0.423500 0.537750 O
0.384600 0.576500 0.537750 O
0.462400 0.191300 0.539050 O
0.537600 0.808700 0.539050 O
0.808700 0.462400 0.539050 O
0.191300 0.537600 0.539050 O
0.230000 0.346900 0.538150 O
0.770000 0.653100 0.538150 O
0.653100 0.230000 0.538150 O
0.346900 0.770000 0.538150 O
0.268700 0.153700 0.535750 O
0.731300 0.846300 0.535750 O
0.846300 0.268700 0.535750 O
0.153700 0.731300 0.535750 O
0.307200 0.961300 0.534950 O
0.692800 0.038700 0.534950 O
0.038700 0.307200 0.534950 O
0.961300 0.692800 0.534950 O
0.000000 0.500000 0.536650 O
0.500000 0.000000 0.536650 O
0.077500 0.115600 0.541550 O
0.922500 0.884400 0.541550 O
0.884400 0.077500 0.541550 O
0.115600 0.922500 0.541550 O
0.422900 0.385100 0.446950 O
0.577100 0.614900 0.446950 O
0.614900 0.422900 0.446950 O
0.385100 0.577100 0.446950 O
0.461600 0.192500 0.446750 O
0.538400 0.807500 0.446750 O
0.807500 0.461600 0.446750 O
0.192500 0.538400 0.446750 O
0.230500 0.345700 0.447250 O
0.769500 0.654300 0.447250 O
0.654300 0.230500 0.447250 O
0.345700 0.769500 0.447250 O
0.269100 0.153200 0.448450 O
0.730900 0.846800 0.448450 O
0.846800 0.269100 0.448450 O
0.153200 0.730900 0.448450 O
0.307400 0.961900 0.448750 O
0.692600 0.038100 0.448750 O
0.038100 0.307400 0.448750 O
0.961900 0.692600 0.448750 O
0.000000 0.500000 0.447650 O
0.500000 0.000000 0.447650 O
0.077000 0.115500 0.446550 O
0.923000 0.884500 0.446550 O
0.884500 0.077000 0.446550 O
0.115500 0.923000 0.446550 O
0.423100 0.384500 0.357050 O
0.576900 0.615500 0.357050 O
0.615500 0.423100 0.357050 O
0.384500 0.576900 0.357050 O
0.461800 0.192100 0.357250 O
0.538200 0.807900 0.357250 O
0.807900 0.461800 0.357250 O
0.192100 0.538200 0.357250 O
0.230700 0.346200 0.356950 O
0.769300 0.653800 0.356950 O
0.653800 0.230700 0.356950 O
0.346200 0.769300 0.356950 O
0.269100 0.153700 0.356850 O
0.730900 0.846300 0.356850 O
0.846300 0.269100 0.356850 O
0.153700 0.730900 0.356850 O
0.307500 0.961500 0.356850 O
0.692500 0.038500 0.356850 O
0.038500 0.307500 0.356850 O
0.961500 0.692500 0.356850 O
0.000000 0.500000 0.357150 O
0.500000 0.000000 0.357150 O
0.076900 0.115200 0.357350 O
0.923100 0.884800 0.357350 O
0.884800 0.076900 0.357350 O
0.115200 0.923100 0.357350 O
0.500000 0.500000 0.491950 O
0.118600 0.425800 0.492450 O
0.881400 0.574200 0.492450 O
0.574200 0.118600 0.492450 O
0.425800 0.881400 0.492450 O
0.729200 0.348300 0.492550 O
0.270800 0.651700 0.492550 O
0.651700 0.729200 0.492550 O
0.348300 0.270800 0.492550 O
0.963100 0.183400 0.493150 O
0.036900 0.816600 0.493150 O
0.816600 0.963100 0.493150 O
0.183400 0.036900 0.493150 O
0.500000 0.500000 0.401850 O
0.114000 0.421600 0.402350 O
0.886000 0.578400 0.402350 O
0.578400 0.114000 0.402350 O
0.421600 0.886000 0.402350 O
0.731900 0.345100 0.402150 O
0.268100 0.654900 0.402150 O
0.654900 0.731900 0.402150 O
0.345100 0.268100 0.402150 O
0.961400 0.194500 0.402350 O
0.038600 0.805500 0.402350 O
0.805500 0.961400 0.402350 O
0.194500 0.038600 0.402350 O
0.500000 0.500000 0.311850 O
0.884900 0.576800 0.311850 O
0.115100 0.423200 0.311850 O
0.423200 0.884900 0.311850 O
0.576800 0.115100 0.311850 O
0.268800 0.653600 0.311850 O
0.731200 0.346400 0.311850 O
0.346400 0.268800 0.311850 O
0.653600 0.731200 0.311850 O
0.038100 0.808500 0.311850 O
0.961900 0.191500 0.311850 O
0.191500 0.038100 0.311850 O
0.808500 0.961900 0.311850 O
0.450302 0.975017 0.576865 O
0.181959 -0.586751 0.592465 O
0.138501 -0.181254 0.592065 O
0.328875 0.720193 0.576265 O
0.197081 0.170459 0.576365 O
0.641896 0.474823 0.576365 O
0.377761 0.182062 0.592065 O
0.901200 0.886561 0.576265 O
0.603011 -0.850641 0.576865 O
0.797895 0.939254 0.592465 O
0.991170 0.599013 0.576265 O
0.898572 0.552128 0.592065 O
0.424672 -0.674966 0.576865 O
0.255232 0.831165 0.576365 O
0.080418 0.429320 0.592465 O
0.092918 0.168778 0.592065 O
0.613670 -0.204168 0.576365 O
0.294497 0.226190 0.576865 O
0.999079 0.869463 0.592465 O
0.517959 1.110613 0.592465 O
0.803601 -0.697019 0.576265 O
0.570770 0.705357 0.576265 O
